%chk=PMC_RC_opt2.chk
%nprocshared=8
%mem=25GB
# opt b3lyp/6-31g(d,p) empiricaldispersion=gd3

Practice Constrained with Cytosine

-2 1
 C               -1   -2.71167000    3.87084800   -1.64652900
 C                0   -3.46967000    3.34959700   -0.43934600
 O                0   -2.91668100    2.38456300    0.19563700
 O                0   -4.61473000    3.80652700   -0.19251800
 H                0   -1.64371400    3.96999100   -1.43406200
 H                0   -3.11776900    4.82381400   -1.99394400
 C               -1   -4.57946300   -3.11695800   -1.89870700
 C                0   -4.89386900   -1.64497600   -1.75928700
 O                0   -5.14990700   -0.98399700   -2.80478500
 O                0   -4.84143000   -1.16300500   -0.57820500
 H                0   -3.53884100   -3.28194300   -1.60908800
 H                0   -4.75616300   -3.46307200   -2.91945800
 C               -1    0.64555600   -6.21140800   -2.47298100
 C                0    0.37945800   -5.27161600   -1.27805200
 O                0   -0.75222600   -4.74111500   -1.21448600
 O                0    1.34217300   -5.13418700   -0.45984400
 H                0    1.46721100   -5.80677000   -3.07586900
 H                0   -0.24384400   -6.32296600   -3.09748500
 Mg               0   -3.89253500    0.54272400   -0.11062400
 O                0   -0.48060500    0.57922900    1.77031100
 P                0   -0.22434800   -0.91945200    2.45111200
 O                0    0.48137800   -1.62225800    1.15875600
 O                0   -1.61534700   -1.48973500    2.64061700
 O                0   -2.07100000   -2.82680000    0.10635700
 O                0    0.75616500   -0.82115400    3.59228200
 H                0   -1.42530200   -3.48936700   -0.25183700
 O                0   -5.63289700    1.57192600    0.77241400
 H                0   -5.37139000    1.38197600    1.68544100
 H                0   -5.34132700    2.51483100    0.59211900
 O                0   -2.08442800   -0.33726400   -0.62447800
 H                0   -1.39950000    0.01238200   -0.03578400
 O                0   -3.42820100    0.32517800    1.97446800
 H                0   -2.79065000    1.05712200    2.01748500
 O                0   -4.56165000    1.33628800   -1.99330500
 H                0   -4.90413000    0.46566200   -2.41823100
 H                0   -2.06430400   -1.33741100   -0.45309100
 H                0   -2.87401900   -0.45981000    2.24674400
 H                0   -5.33128200    1.88333900   -1.79075300
 H                0   -1.87014500   -2.66742600    1.04446300
 H                0    0.97148000   -7.19138500   -2.10630400
 H                0   -5.18415000   -3.69414200   -1.19159200
 H                0   -2.83621300    3.11488100   -2.42711100
 C                0    1.54562900   -2.57283300    1.31114300
 C                0    2.57354900   -2.33451600    0.22303000
 O                0    3.18334500   -1.02409600    0.37035500
 C                0    3.73496400   -3.37568700    0.27692900
 O                0    3.78377100   -4.25557000   -0.81324300
 C                0    4.99078100   -2.48779900    0.32400300
 C                0    4.46742400   -1.20545100    0.96290900
 H                0    5.82589700   -2.94515800    0.86394300
 H                0    3.65301100   -3.93046900    1.23003800
 H                0    2.00480300   -2.45696300    2.29967900
 H                0    4.38167800   -1.30771100    2.05732900
 H                0    5.29903200   -2.29762100   -0.71026000
 H                0    2.08968200   -2.36243400   -0.75603700
 H                0    1.14991000   -3.58409600    1.17925500
 H                0    2.90525300   -4.73091300   -0.80441700
 H                0    5.06308900   -0.31183900    0.74825900
 C                0    2.00156600    2.19381100    3.33458300
 O                0    1.31766700    1.66819200    4.44281100
 C                0    1.08308500    2.48166800    2.14293900
 O                0    1.81418200    3.31638900    1.22346400
 C                0    0.67078700    1.27943600    1.28682100
 C                0    0.36646100    1.93762100   -0.06208400
 C                0    1.34646700    3.11972500   -0.11292900
 H                0    0.89387900    4.03972400   -0.48335800
 H                0    0.46208100    1.25522800   -0.90960000
 H                0    1.50922700    0.58080600    1.21462100
 H                0    0.17807800    2.99428900    2.50304800
 H                0    2.82153900    1.54097400    2.98654800
 H                0   -0.66826800    2.29462400   -0.03863400
 H                0    2.45503300    3.14707400    3.63672200
 H                0    1.07655900    0.73518900    4.22244400
 C                0    3.15344500    1.70433400   -0.97850500
 C                0    4.25153500    1.47552800   -1.75078100
 H                0    2.76380200    0.91983500   -0.34248600
 H                0    4.73758200    0.50831200   -1.73881400
 N                0    2.51241100    2.89925200   -0.99270000
 N                0    4.09246500    3.74126500   -2.59210400
 C                0    4.67985000    2.56178200   -2.56996700
 C                0    2.99840400    3.99066800   -1.79194200
 N                0    5.79245700    2.40638200   -3.37360900
 H                0    6.00206000    1.46696600   -3.67804600
 H                0    5.87521000    3.11870300   -4.08609400
 O                0    2.42835500    5.07388000   -1.75580400

