%chk=Model2_IC_hopt1.chk
%nprocshared=8
%mem=3GB
# opt b3lyp/6-31g(d,p) empiricaldispersion=gd3

Model 2 IC freq

-1 1
 C               -1    1.01286200    5.89374100    1.97488900
 C                0    2.43339800    6.24279000    1.49437500
 C                0    3.27462700    4.97171900    1.38757400
 O                0    2.78482900    4.05266200    0.63837500
 O                0    4.32386400    4.85210900    2.06423800
 H                0    0.39937600    6.79722700    2.06847100
 H                0    2.38269600    6.71211100    0.50132500
 H                0    2.92794700    6.94467800    2.17154800
 C               -1   -1.59273600    1.80182700    4.42905600
 C                0   -0.79321300    0.63970600    3.80814700
 C                0    0.70052100    0.97110200    3.74896700
 O                0    1.22045100    1.46768600    4.78073900
 O                0    1.31643700    0.78471200    2.63887500
 H                0   -2.65525900    1.54695100    4.50796500
 H                0   -1.50141400    2.69829300    3.80639400
 H                0   -0.92246900   -0.26789700    4.41112700
 H                0   -1.14391600    0.40751600    2.80314700
 C               -1   -6.59316400   -2.22518400    3.86937900
 C                0   -6.34380500   -2.87681900    2.50164200
 C                0   -4.90504800   -2.66604300    2.10734900
 C                0   -3.92673600   -3.62957100    2.37614900
 C                0   -4.48809500   -1.41812100    1.62942500
 C                0   -2.57602500   -3.35604500    2.18201200
 C                0   -3.14567100   -1.12299000    1.42585100
 C                0   -2.17899700   -2.10092900    1.70457800
 O                0   -0.85756500   -1.86618500    1.55023400
 H                0   -5.93394300   -2.66155900    4.62679100
 H                0   -6.57783600   -3.94736100    2.54833400
 H                0   -7.02019300   -2.43811300    1.75686700
 H                0   -4.22597000   -4.60259600    2.76059300
 H                0   -5.23163800   -0.65093900    1.43487900
 H                0   -1.81169800   -4.09645200    2.39738500
 H                0   -2.83785600   -0.15500400    1.04889600
 H                0   -0.70718500   -1.05213000    0.96184800
 C               -1   -7.56077900   -0.16717700   -0.69075800
 C                0   -6.47334200    0.89810600   -0.52034300
 C                0   -5.16312800    0.55502300   -1.22271300
 O                0   -4.15472200    1.28259500   -0.77844500
 O                0   -5.10078700   -0.27657700   -2.12260100
 H                0   -7.76137200   -0.34403200   -1.75029600
 H                0   -6.80364400    1.85856400   -0.93910400
 H                0   -6.25711500    1.09892100    0.53345600
 C               -1   -2.49028000    6.67849700   -4.28891200
 C                0   -1.17044600    7.04811100   -3.60734400
 C                0   -0.60642200    5.93123300   -2.78496800
 C                0   -1.08267400    4.69994100   -2.40706300
 N                0    0.65874700    6.00218600   -2.21696100
 C                0    0.89809000    4.84744500   -1.54088300
 N                0   -0.14368300    4.03947200   -1.63627600
 H                0   -3.25099900    6.41364500   -3.54797600
 H                0   -0.43646200    7.34378700   -4.37068100
 H                0   -1.32119900    7.93551900   -2.97536600
 H                0    1.29289700    6.78385300   -2.27898600
 H                0   -2.03168800    4.23876100   -2.63553900
 H                0    1.78897700    4.64272100   -0.95216400
 C                0    1.98929600   -3.32058600    1.12943800
 O                0    0.75752400   -4.00644100    1.05918000
 C                0    1.96063000   -1.96396000    0.40143500
 O                0    3.33140500   -1.48981200    0.17462800
 C                0    1.38711400   -2.01538900   -1.01717300
 O                0    1.21491600   -0.68579200   -1.49525100
 C                0    2.57131900   -2.59971400   -1.79395900
 C                0    3.77793000   -1.93390400   -1.10417100
 H                0    4.13741400   -1.07128900   -1.66982100
 H                0    2.61784900   -3.68606200   -1.68115300
 H                0    0.48040900   -2.61556800   -1.09646000
 H                0    1.48799700   -1.19722700    1.01682300
 H                0    2.74318100   -3.96743600    0.66553400
 H                0    2.53171300   -2.35700600   -2.85300800
 H                0    2.31294300   -3.14208700    2.16939000
 P                0   -0.26963900    0.13592200   -1.46218300
 C                0   -2.29297000   -1.41452400   -2.12627500
 O                0   -0.92997600   -1.04543900   -2.39897200
 C                0   -2.46569100   -2.91256500   -2.16228900
 O                0   -1.56918100   -3.53834300   -1.25367900
 C                0   -3.85198900   -3.33899900   -1.63618300
 O                0   -4.91542200   -3.17292100   -2.55308800
 C                0   -3.59914000   -4.81199900   -1.29034600
 C                0   -2.08816700   -4.84505100   -0.95833000
 O                0    0.59885400    1.38699300   -2.06966400
 O                0   -1.78975000    1.20524300   -1.84471700
 O                0   -0.62461200    0.14437300    0.03384500
 H                0   -4.22211000   -5.15104700   -0.45894000
 H                0   -4.04050400   -2.78115200   -0.70960400
 H                0   -2.58236000   -1.06112700   -1.13751600
 H                0   -1.87985400   -5.03964300    0.09542700
 H                0   -3.83451300   -5.41940300   -2.17096500
 H                0   -2.32583500   -3.30136400   -3.18628900
 H                0   -2.96507000   -0.96060100   -2.85577800
 H                0   -2.35817700    5.81942000   -4.95355500
 H                0   -2.87071800    7.51589900   -4.88067200
 H                0   -8.48810100    0.14172500   -0.19940600
 H                0   -7.23821100   -1.11932900   -0.25841400
 H                0   -7.63080500   -2.35227500    4.20277400
 H                0   -6.37764500   -1.15280200    3.82771600
 H                0   -5.16309900   -2.23393700   -2.51213400
 H                0    0.52729600    5.21229200    1.27523100
 H                0    1.05234400    5.38600000    2.94044400
 H                0   -3.24722000    1.13503900   -1.24123300
 H                0    0.06792500   -3.33190100    1.22324300
 H                0   -1.20111800    2.03639400    5.42149400
 H                0   -1.87607700    1.23557600   -2.80846000
 O                0    2.80423900    1.22381400   -0.12712800
 H                0    2.96233500    0.26545000    0.00080400
 H                0    2.18826200    1.26600500   -0.88521100
 O                0    2.28526500    3.35160900    3.44930100
 H                0    2.04349200    2.65016900    4.13627400
 O                0    0.24269700    2.57457800    0.91515900
 H                0   -0.00552500    3.08605800    0.12411600
 O                0    4.41378800    2.13331000    1.92667700
 H                0    4.63895500    1.90189000    1.01371400
 H                0    3.16031900    3.71198500    3.64075400
 H                0   -0.15570200    1.68071700    0.77838800
 H                0    4.59488200    3.11114500    1.97315300
 H                0    0.11168300    2.23846200   -1.95956100
 H                0   -1.55858100   -5.59855500   -1.55897500
 Mg               0    2.21856000    2.29041700    1.59756900
 C                0    5.40571900   -3.19207900    0.29449600
 C                0    6.47683100   -4.02740200    0.42331600
 H                0    4.87835000   -2.76268400    1.13632400
 H                0    6.85956500   -4.30065200    1.39831800
 N                0    4.94185300   -2.84261500   -0.92705200
 N                0    6.65015300   -4.13931200   -1.99298000
 C                0    7.06633100   -4.49431900   -0.79197400
 C                0    5.59597100   -3.27180400   -2.12818000
 N                0    8.15620600   -5.33022700   -0.73671900
 H                0    8.28247800   -5.89139000    0.09128000
 H                0    8.39137500   -5.77062600   -1.61479800
 O                0    5.17232300   -2.85446000   -3.19940500

