%nprocshared=8
%mem=30GB
# freq b3lyp/6-31g(d,p) empiricaldispersion=gd3

Model 1 Minus a CH3 off of amino acids

-1 1
 C               -1    4.99154700   -4.55806400    0.04151100
 C                0    3.64931500   -4.62911900   -0.67110200
 O                0    3.05995000   -3.51042600   -0.89679500
 O                0    3.15587300   -5.75903600   -0.89896400
 H                0    5.56853800   -3.67729700   -0.25265500
 H                0    5.57349400   -5.46939200   -0.11372200
 C               -1   -0.28951300   -1.60571700    3.79528100
 C                0    0.30571900   -2.76818100    3.03077800
 O                0    1.02819100   -3.58415700    3.65677800
 O                0    0.02703200   -2.82601300    1.78238000
 H                0    0.12195100   -1.55303400    4.80438500
 H                0   -1.37617000   -1.72923200    3.85879100
 C               -1    3.31443900    6.17907200    1.40897800
 C                0    3.12469900    4.91249400    0.59143100
 O                0    2.69382400    3.89818600    1.32157800
 O                0    3.32836000    4.86929200   -0.61759300
 H                0    3.81334700    6.93924700    0.80761000
 H                0    3.88878000    5.96484500    2.31430200
 C               -1    7.68271500    1.17309900   -0.96049800
 C                0    6.37300900    0.46627400   -1.03532500
 C                0    5.09917500    0.85469500   -0.71308700
 N                0    6.23778100   -0.83701400   -1.50148300
 C                0    4.92168300   -1.17796600   -1.44291100
 N                0    4.21147500   -0.17197900   -0.96848500
 H                0    8.39100100    0.66129000   -0.29659600
 H                0    7.53037000    2.18174000   -0.56959700
 H                0    6.98657000   -1.43934700   -1.80691400
 H                0    4.74882800    1.79884100   -0.32413400
 H                0    4.50842700   -2.14675100   -1.69196000
 C                0   -2.62805800    0.15136400    1.76654700
 O                0   -1.74607000    1.12070300    2.31029600
 C                0   -1.97417400   -0.53373300    0.57130000
 O                0   -2.71239500   -1.69922000    0.09892000
 C                0   -1.84830100    0.40063400   -0.63770300
 O                0   -0.62119800    0.19712200   -1.32506600
 C                0   -3.03722400    0.01156600   -1.52940300
 C                0   -3.45489600   -1.39546300   -1.06092000
 H                0   -3.26694100   -2.16011400   -1.81838200
 H                0   -3.86456800    0.71211000   -1.39676200
 H                0   -1.93564600    1.44553100   -0.33635400
 H                0   -1.00859400   -0.91706400    0.89171900
 H                0   -3.57026000    0.63941100    1.46640200
 H                0   -2.75487000    0.01987100   -2.58085000
 H                0   -2.87254500   -0.60532000    2.52685100
 P                0    0.72828600    1.13375800   -0.73086900
 C                0    0.06548900    3.71023000   -0.60145700
 O                0   -0.01246000    2.48769600   -1.33384800
 C                0   -1.28108800    4.42347200   -0.68068500
 O                0   -2.32920100    3.64019400   -0.11248000
 C                0   -1.25694000    5.72954000    0.13259800
 O                0   -2.27367900    6.64586000   -0.27531100
 C                0   -1.63330900    5.22412000    1.52665400
 C                0   -2.64368400    4.10965300    1.21412800
 O                0    1.59736100    0.23340000   -1.75921900
 O                0    2.25937400    2.12068000   -0.41811400
 O                0    0.59301300    0.84307800    0.77094000
 H                0   -0.74733100    4.82638300    2.03116500
 H                0   -0.26661000    6.21000300    0.10704100
 H                0    0.30647600    3.51502100    0.44611700
 H                0   -2.57141200    3.26345700    1.90287700
 H                0   -2.05307900    6.02685100    2.13774200
 H                0   -1.53071500    4.60066200   -1.73687100
 H                0    0.85110600    4.35163700   -1.01934800
 H                0   -2.21861800    6.73547900   -1.23548800
 H                0    2.50014200    3.09272800    0.69139600
 H                0   -0.89824000    1.09437600    1.81039600
 H                0    2.51767300    2.64295100   -1.19354000
 O                0   -0.08994600   -2.45699300   -1.04121500
 H                0   -0.92560200   -2.54367300   -0.54802000
 H                0   -0.08741800   -1.50386000   -1.31101000
 O                0    2.34550200   -4.52906400    1.72184300
 H                0    2.11874400   -5.43495100    1.47741000
 O                0    2.22841500   -1.36917500    0.87855000
 H                0    2.94566900   -1.01030600    0.32378000
 O                0    0.64437000   -5.04785200   -0.59280800
 H                0    0.27031700   -4.65627100   -1.39506300
 H                0    1.83635200   -4.30006200    2.57822700
 H                0    1.61251400   -0.60931700    1.02178900
 H                0    1.52326600   -5.44275200   -0.87494400
 H                0    2.55149200    0.22066100   -1.49449900
 H                0   -3.66878000    4.50185700    1.20601700
 Mg               0    1.40130500   -3.19661200    0.31877100
 C                0   -5.37221200   -1.68242400    0.50354100
 C                0   -6.71198800   -1.74396400    0.75841600
 H                0   -4.61287500   -1.80064500    1.26569400
 H                0   -7.08526100   -1.91952600    1.75931700
 N                0   -4.91421500   -1.48046100   -0.75063600
 N                0   -7.15042300   -1.41741100   -1.60459400
 C                0   -7.57779200   -1.59067600   -0.36790800
 C                0   -5.80416700   -1.37704200   -1.86750500
 N                0   -8.93968300   -1.66448200   -0.18890100
 H                0   -9.30974300   -1.43619000    0.72085000
 H                0   -9.48152000   -1.34885600   -0.98090800
 O                0   -5.31748100   -1.24629200   -2.98487200
 H                0   -0.11213300   -0.66915700    3.26254300
 H                0    4.74993200   -4.46087700    1.10395200
 H                0    8.15868000    1.26580000   -1.94497800
 H                0    2.33341800    6.54859000    1.72673000

