%nprocshared=8
%mem=30GB
# freq b3lyp/6-31g(d,p) empiricaldispersion=gd3

Model 1 Minus a CH3 off of amino acids

-1 1
 C               -1    3.83580700   -5.32345500   -0.11639200
 C                0    2.50842200   -5.00278800   -0.79809900
 O                0    2.16102300   -3.76126100   -0.78258000
 O                0    1.82902000   -5.94658700   -1.23938300
 H                0    4.58089200   -4.53351800   -0.26515400
 H                0    4.23089000   -6.28848300   -0.44214200
 C               -1    0.06674100   -0.88307100    3.97920000
 C                0    0.11714700   -2.26480700    3.32881300
 O                0    0.69597900   -3.19228000    3.94757900
 O                0   -0.39254700   -2.35297800    2.16122100
 H                0    0.30982700   -0.93743200    5.04220300
 H                0   -0.90972400   -0.41440400    3.83271100
 C               -1    5.63545000    5.41745700    1.05042700
 C                0    4.81864700    4.22086700    0.64714600
 O                0    3.97900000    3.84745900    1.61084700
 O                0    4.92407100    3.66675900   -0.44224600
 H                0    6.27909300    5.72411500    0.22678300
 H                0    6.23986500    5.16714200    1.92744100
 C               -1    8.04006700   -0.69362400   -1.52411100
 C                0    6.55154100   -0.85431200   -1.50531900
 C                0    5.53617900    0.06592700   -1.45052300
 N                0    5.90425300   -2.08326900   -1.56089900
 C                0    4.56019500   -1.87411400   -1.54289500
 N                0    4.31372900   -0.57666400   -1.47730000
 H                0    8.51754700   -1.20184700   -0.67778900
 H                0    8.29137400    0.36758500   -1.46308400
 H                0    6.34287700   -2.99157500   -1.58332400
 H                0    5.61309700    1.14211700   -1.38255300
 H                0    3.80219300   -2.65702900   -1.53440500
 C                0   -2.52201100    0.92051400    1.72485300
 O                0   -1.44292100    1.77003200    2.10508600
 C                0   -2.11062100   -0.04977500    0.62230200
 O                0   -3.16991700   -1.02962300    0.43746800
 C                0   -1.88097100    0.59923600   -0.75448000
 O                0   -0.83937800    0.01405400   -1.48647600
 C                0   -3.26190400    0.43118300   -1.42200100
 C                0   -3.78709400   -0.87734100   -0.82613600
 H                0   -3.55634600   -1.73618700   -1.46259500
 H                0   -3.93948500    1.24718000   -1.14326100
 H                0   -1.64626900    1.66118000   -0.64921000
 H                0   -1.23145700   -0.60331500    0.95480500
 H                0   -3.35140900    1.56203300    1.39475000
 H                0   -3.18898200    0.39373700   -2.50679700
 H                0   -2.87775000    0.33312200    2.58552600
 P                0    1.58034400    1.31535300   -0.35903600
 C                0    0.42415100    3.59622700    0.02218900
 O                0    0.85161000    2.61976500   -0.94945200
 C                0   -0.49703600    4.60950800   -0.64395400
 O                0   -1.63996700    3.97455500   -1.20699300
 C                0   -1.02996800    5.61163100    0.40313100
 O                0   -1.39304800    6.86262300   -0.18178500
 C                0   -2.32014900    4.92422200    0.85113500
 C                0   -2.81960100    4.32787500   -0.46701600
 O                0    1.95869500    0.47070200   -1.60536400
 O                0    3.03604600    1.88150700    0.17564600
 O                0    0.93706100    0.74054700    0.86445600
 H                0   -2.09401100    4.12975500    1.56857700
 H                0   -0.31904300    5.76051400    1.23019300
 H                0   -0.11049200    3.09809200    0.83256500
 H                0   -3.41904700    3.42334500   -0.33065200
 H                0   -3.01620100    5.63781300    1.29837900
 H                0    0.04910100    5.12101200   -1.45100900
 H                0    1.30691400    4.11042900    0.42889600
 H                0   -0.63520300    7.18493600   -0.68650100
 H                0    3.48778500    3.03634500    1.30609500
 H                0   -0.61257900    1.30061300    1.90032900
 H                0    3.59261700    2.32201300   -0.50069500
 O                0   -0.81992200   -2.49319700   -0.72197000
 H                0   -1.59959900   -2.40666100   -0.15383900
 H                0   -0.78277800   -0.97651800   -1.27399800
 O                0    1.26135500   -4.70959900    1.91505500
 H                0    0.55463100   -5.35203200    1.75697100
 O                0    2.02035500   -1.75731300    1.06163600
 H                0    2.68326700   -1.73454200    0.36108600
 O                0   -0.54427300   -5.05750600   -0.26828200
 H                0   -0.88747500   -4.28693700   -0.78699600
 H                0    1.04577200   -4.25372200    2.79352100
 H                0    1.59878900   -0.87070100    1.10379200
 H                0    0.17603200   -5.44951900   -0.81904400
 H                0    2.90929900    0.03759300   -1.55429900
 H                0   -3.40263600    5.06058100   -1.04043000
 Mg               0    0.58292500   -3.21964300    0.50967900
 C                0   -5.81553100   -0.82295500    0.60310000
 C                0   -7.17165400   -0.79405200    0.76618500
 H                0   -5.11110000   -0.81859500    1.42515000
 H                0   -7.61817400   -0.77491300    1.75237600
 N                0   -5.26401300   -0.87526700   -0.62780500
 N                0   -7.43507800   -0.88529000   -1.64145800
 C                0   -7.95151800   -0.82885500   -0.42912400
 C                0   -6.07168300   -0.92206700   -1.81101400
 N                0   -9.32685400   -0.84376900   -0.34120300
 H                0   -9.74783400   -0.43545200    0.47926300
 H                0   -9.79701200   -0.65835200   -1.21608600
 O                0   -5.51254300   -0.97475600   -2.89884400
 H                0    0.80472700   -0.24960200    3.47440300
 H                0    3.61509200   -5.36386400    0.95541800
 H                0    8.48195900   -1.09177800   -2.44544000
 H                0    4.97122200    6.23718200    1.33870100

