%nprocshared=8
%mem=30GB
# freq b3lyp/6-31g(d,p) empiricaldispersion=gd3

SA Asp M1 IC

-1 1
 C               -1    6.58170200   -2.44649800    0.02124800
 C                0    5.41443500   -2.93828500   -0.82728400
 O                0    4.38872900   -2.15833200   -0.87476800
 O                0    5.48276900   -4.07056200   -1.34152700
 H                0    6.69949100   -1.35855000   -0.04110700
 H                0    7.51384600   -2.94760700   -0.24938400
 C               -1    0.59265200   -2.12247700    3.85828300
 C                0    1.64558300   -2.86074300    3.04883200
 O                0    2.69512600   -3.23472800    3.63072100
 O                0    1.37416200   -3.03991400    1.81328700
 H                0    0.91182300   -1.99214600    4.89376800
 H                0   -0.34586800   -2.68664900    3.83025200
 C               -1   -0.56881400    6.43028600    2.83495800
 C                0    0.23569900    6.79339900    1.57881600
 C                0    0.51526400    5.59220500    0.69437800
 O                0    1.08201100    4.59354200    1.36192500
 O                0    0.23992300    5.55949900   -0.50028500
 H                0   -1.54394100    6.00997400    2.56712800
 H                0   -0.28247100    7.53538600    0.96678000
 H                0    1.20430900    7.21685900    1.87333700
 C               -1    6.70920000    3.93306400   -0.59291500
 C                0    5.76088900    2.85894300   -1.01057900
 C                0    4.44306400    2.90480900   -1.38408000
 N                0    6.09760700    1.51358300   -1.08238400
 C                0    5.00168800    0.81178000   -1.48508800
 N                0    3.98885000    1.63757200   -1.67748000
 H                0    7.08917300    3.77161900    0.42327500
 H                0    6.19569500    4.89713700   -0.60647500
 H                0    6.98847700    1.10499700   -0.84345700
 H                0    3.78444700    3.75845500   -1.42870000
 H                0    4.95821000   -0.27173100   -1.56606700
 C                0   -2.06371400   -0.85707000    1.75794400
 O                0   -1.36406900    0.33608100    2.06274700
 C                0   -1.41135800   -1.69610900    0.65774600
 O                0   -2.11816600   -2.97507500    0.57365900
 C                0   -1.47148800   -1.06577600   -0.75879700
 O                0   -0.22679900   -0.66253100   -1.28057200
 C                0   -2.10800300   -2.17047500   -1.62658100
 C                0   -2.82947400   -3.07205900   -0.63247800
 H                0   -2.85691300   -4.11996300   -0.94106200
 H                0   -2.74995800   -1.78592800   -2.41530300
 H                0   -2.11603000   -0.18607600   -0.75446300
 H                0   -0.38317700   -1.93047500    0.94542200
 H                0   -3.08508300   -0.58627000    1.45418900
 H                0   -1.30198400   -2.74790500   -2.08771000
 H                0   -2.14407600   -1.48040400    2.66141100
 P                0    0.66904600    1.36347300   -0.81877800
 C                0   -1.61560700    2.55464300   -0.37715100
 O                0   -0.79540400    1.83561800   -1.32093000
 C                0   -3.01937900    2.69470600   -0.95041200
 O                0   -3.57747200    1.42552000   -1.29079600
 C                0   -3.96149900    3.31657400    0.10397000
 O                0   -5.02892300    4.05825700   -0.48640700
 C                0   -4.57255100    2.06775800    0.74283800
 C                0   -4.72260700    1.15105500   -0.47184400
 O                0    1.52590000    0.89553700   -2.04545500
 O                0    1.32803900    2.92831700   -0.62911600
 O                0    0.85700600    0.86503000    0.59574600
 H                0   -3.86978700    1.64146000    1.46563300
 H                0   -3.41068400    3.93657800    0.82769600
 H                0   -1.64744800    2.01446300    0.57353300
 H                0   -4.71655400    0.08712600   -0.22744500
 H                0   -5.51661800    2.29499300    1.24387800
 H                0   -2.97743100    3.31110500   -1.86070600
 H                0   -1.20120700    3.55628800   -0.21608900
 H                0   -0.74184000    7.31636300    3.45347600
 H                0   -0.03534400    5.68529400    3.42907900
 H                0   -4.63870000    4.70787700   -1.08558700
 H                0    1.22867500    3.82652300    0.72821400
 H                0   -0.51288100    0.37998700    1.57424400
 H                0    0.95486000    3.56894500   -1.25760000
 O                0    1.16218400   -2.71562500   -1.03170200
 H                0    0.50161700   -3.23610500   -0.55171300
 H                0    0.44850400   -1.48509100   -1.22227900
 O                0    4.13871000   -3.74937500    1.58291700
 H                0    4.03236200   -4.67357600    1.32044900
 O                0    2.93150600   -0.81337600    0.97181900
 H                0    3.61338800   -0.46639600    0.38132400
 O                0    2.91767900   -4.72872200   -0.85079000
 H                0    2.27019000   -4.27550600   -1.42902700
 H                0    3.65346600   -3.64441500    2.47301400
 H                0    2.14864200   -0.21756400    0.88938800
 H                0    3.80938600   -4.58865800   -1.26261100
 H                0    2.50383100    1.22391300   -1.95906700
 H                0   -5.64245200    1.37868200   -1.02718300
 Mg               0    2.71853200   -2.78906600    0.25970500
 C                0   -4.76169800   -2.50580200    0.83803000
 C                0   -6.05419700   -2.11857300    1.04703000
 H                0   -4.06077300   -2.69514600    1.64025100
 H                0   -6.44849600   -1.98859800    2.04680600
 N                0   -4.27008500   -2.66603800   -0.41194700
 N                0   -6.40771900   -2.13338400   -1.34696600
 C                0   -6.83557400   -1.88127600   -0.12642800
 C                0   -5.15385900   -2.66407800   -1.54151000
 N                0   -8.11873400   -1.39733200   -0.00134100
 H                0   -8.32854800   -0.84238500    0.81452800
 H                0   -8.51915200   -1.06788700   -0.86892300
 O                0   -4.75125100   -3.10352900   -2.61006900
 H                0    6.32010700   -2.69489500    1.05398600
 H                0    0.38973400   -1.14774300    3.40405800
 H                0    7.57427700    4.00445000   -1.26393400

