%nprocshared=8
%mem=30GB
# freq b3lyp/6-31g(d,p) empiricaldispersion=gd3

M1 TS1 opt4

-1 1
 C               -1    5.13419300   -3.59362000    0.98104700
 C                0    5.05007400   -4.34184800   -0.36152900
 C                0    3.59380200   -4.45667200   -0.81533300
 O                0    2.96914600   -3.35101900   -0.98933800
 O                0    3.07987600   -5.59870800   -0.92151100
 H                0    6.17365700   -3.50240600    1.31556800
 H                0    5.61757200   -3.79338900   -1.12591300
 H                0    5.47538200   -5.34649800   -0.28707800
 C               -1    1.38768700   -1.18965600    4.10202000
 C                0   -0.06020100   -1.62687600    3.79696400
 C                0    0.01740100   -2.83206100    2.86810600
 O                0    0.32694600   -3.93849900    3.37550600
 O                0   -0.11650500   -2.61380300    1.61089500
 H                0    1.91509500   -0.93588000    3.17865600
 H                0    1.92855500   -2.00696200    4.58863900
 H                0   -0.56104400   -1.92078000    4.72563100
 H                0   -0.61278200   -0.80530100    3.33588600
 C               -1    3.11105800    6.31178900    1.32107200
 C                0    2.93117800    5.03422600    0.50468100
 O                0    2.59927600    3.99577100    1.20788300
 O                0    3.06251100    5.05721400   -0.73049600
 H                0    3.58583800    7.08756100    0.71805600
 H                0    3.69746600    6.11036800    2.22174800
 C               -1    7.48166900    1.50766800   -1.43102100
 C                0    6.19866500    0.74875500   -1.36611500
 C                0    4.95071400    1.09373700   -0.91761500
 N                0    6.06150900   -0.55873200   -1.82154100
 C                0    4.76954700   -0.94265100   -1.63671300
 N                0    4.07402700    0.03861500   -1.09163700
 H                0    8.27781900    1.02455100   -0.85046900
 H                0    7.33131300    2.50909900   -1.02162800
 H                0    6.79621900   -1.13556900   -2.20121900
 H                0    4.60901900    2.02672000   -0.49644400
 H                0    4.36745000   -1.92319000   -1.85401400
 C                0   -2.74935800    0.02262100    1.67506500
 O                0   -1.92426300    1.00659100    2.28302600
 C                0   -2.08081300   -0.49810900    0.40886000
 O                0   -2.74530500   -1.66553100   -0.16055800
 C                0   -2.03696300    0.53300600   -0.71976800
 O                0   -0.82170700    0.40373400   -1.46418100
 C                0   -3.23646200    0.16795200   -1.60191900
 C                0   -3.55418800   -1.30102200   -1.25896400
 H                0   -3.34929200   -1.97636500   -2.09306100
 H                0   -4.09371500    0.80230700   -1.36703700
 H                0   -2.13381300    1.55207500   -0.34144200
 H                0   -1.08945400   -0.84257700    0.69003500
 H                0   -3.73461400    0.46303900    1.45375500
 H                0   -3.00459300    0.29596800   -2.65781600
 H                0   -2.90194600   -0.82107500    2.36455000
 P                0    0.48905900    1.30417800   -0.85006100
 C                0   -0.06654300    3.89144200   -0.58147500
 O                0   -0.17171800    2.70270400   -1.37860900
 C                0   -1.42929900    4.56732800   -0.50266800
 O                0   -2.40619100    3.70369800    0.08051000
 C                0   -1.36068600    5.80421000    0.41287600
 O                0   -2.39814700    6.74626600    0.13503200
 C                0   -1.66184800    5.18678600    1.77957600
 C                0   -2.70317500    4.11711900    1.42899300
 O                0    1.42441400    0.48936100   -1.87693500
 O                0    2.19789300    2.35009900   -0.51039700
 O                0    0.43676300    1.00853300    0.64353900
 H                0   -0.75366000    4.73705500    2.19186600
 H                0   -0.37276500    6.28729300    0.37300000
 H                0    0.27487700    3.64318600    0.42407200
 H                0   -2.65346600    3.23358200    2.07052400
 H                0   -2.03310500    5.93804900    2.48073500
 H                0   -1.76864900    4.82749300   -1.51583600
 H                0    0.66708700    4.56550300   -1.03496800
 H                0   -2.35677200    6.95623800   -0.80691700
 H                0    4.70544900   -2.59357000    0.88230800
 H                0    4.55470200   -4.11341000    1.74671200
 H                0    2.37015100    3.07459700    0.41992300
 H                0   -1.07556400    1.06064300    1.79309300
 H                0    1.40378700   -0.31447600    4.76018400
 H                0    2.41838700    2.97109400   -1.22590700
 O                0   -0.15310100   -2.29219400   -1.26369800
 H                0   -1.02766900   -2.39115200   -0.84140600
 H                0   -0.13854700   -1.34613200   -1.52864600
 O                0    2.08199300   -4.44014000    1.58410900
 H                0    2.15718400   -5.31705200    1.18606400
 O                0    2.10051700   -1.20335000    0.68424700
 H                0    2.81019000   -0.81277200    0.13696200
 O                0    0.53258900   -4.87675900   -0.81298900
 H                0    0.24860300   -4.48898400   -1.65281600
 H                0    1.38070800   -4.46850800    2.31240300
 H                0    1.47627100   -0.46091600    0.86242000
 H                0    1.42547200   -5.28834900   -1.00154500
 H                0    2.37191400    0.50222700   -1.59114900
 H                0   -3.71632100    4.54029000    1.45154700
 Mg               0    1.25989700   -3.04810400    0.17471000
 C                0   -5.38080200   -1.88644000    0.32994300
 C                0   -6.70218700   -2.06519300    0.61978200
 H                0   -4.58500300   -2.04405400    1.04638500
 H                0   -7.02190700   -2.38175200    1.60435900
 N                0   -4.98928400   -1.50710500   -0.90670000
 N                0   -7.25768600   -1.49425000   -1.67190700
 C                0   -7.62224000   -1.83815700   -0.45045000
 C                0   -5.92921900   -1.33687200   -1.97342600
 N                0   -8.96698800   -2.02010700   -0.23481200
 H                0   -9.31363300   -1.93638600    0.70810100
 H                0   -9.56288100   -1.65715100   -0.96507900
 O                0   -5.49557700   -1.04977300   -3.08374300
 H                0    7.84196700    1.61882200   -2.46148200
 H                0    2.12606000    6.66421900    1.64897700

