%nprocshared=8
%mem=30GB
# freq b3lyp/6-31g(d,p) empiricaldispersion=gd3

M1 TS1 opt4

-1 1
 C               -1    7.28001800   -2.03409700    0.20042600
 C                0    6.30826400   -0.92098000   -0.14512100
 O                0    5.36048100   -0.69205600    0.67835200
 O                0    6.45680200   -0.27948300   -1.22290100
 H                0    7.73798800   -1.81864500    1.17112300
 H                0    8.05289700   -2.13304400   -0.56319500
 C               -1    1.19855400   -4.24028900    3.17449000
 C                0    2.09433700   -3.72906300    2.06062400
 O                0    2.08636800   -4.31514900    0.94645800
 O                0    2.79084500   -2.69155800    2.34091200
 H                0    0.88921400   -5.26970900    2.98357700
 H                0    0.31259500   -3.59796700    3.19842000
 C               -1   -2.37607200    3.61470000    3.72285900
 C                0   -2.68387900    5.09021500    3.40500200
 C                0   -2.51621200    5.34147200    1.92821500
 O                0   -3.49174600    4.78220100    1.19908500
 O                0   -1.57716600    5.95576500    1.43839300
 C               -1    5.85544700    5.05573100   -0.29760600
 C                0    5.97330000    3.56068600   -0.62542400
 C                0    4.66027900    2.93111300   -0.97934100
 C                0    3.39095000    3.44621200   -1.04872200
 N                0    4.54432200    1.59027000   -1.31068600
 C                0    3.25667100    1.31155000   -1.55837900
 N                0    2.54076500    2.42291500   -1.40572200
 H                0    5.18728800    5.21924500    0.55386600
 H                0    6.67620400    3.41429900   -1.45581600
 H                0    6.40693000    3.02252000    0.22756100
 H                0    5.32209400    0.85954100   -1.29191700
 H                0    3.01877800    4.44129900   -0.87036900
 H                0    2.86878200    0.32952400   -1.78474100
 C                0   -2.27002500   -0.33016200    1.65540400
 O                0   -2.46617300    1.03192700    1.96420200
 C                0   -0.82095700   -0.66641200    1.28370600
 O                0   -0.58653200   -2.09717700    1.36280200
 C                0   -0.45860700   -0.28234500   -0.15716000
 O                0    0.89583800    0.12828500   -0.27477400
 C                0   -0.76251600   -1.56588700   -0.94969300
 C                0   -0.73924600   -2.69800500    0.09678100
 H                0    0.06797400   -3.42031200   -0.03779400
 H                0   -1.73887400   -1.48765100   -1.42383800
 H                0   -1.08463000    0.53547700   -0.50556200
 H                0   -0.14675400   -0.19499600    2.00345200
 H                0   -2.92833000   -0.65442700    0.83512200
 H                0   -0.03026400   -1.73469700   -1.73852200
 H                0   -2.54003400   -0.90855200    2.54853200
 P                0   -1.10727200    3.24064500   -0.88913900
 C                0   -3.52486900    2.21934700   -1.08773700
 O                0   -2.23586500    2.35627500   -1.68582800
 C                0   -4.29009500    1.10442600   -1.77856000
 O                0   -3.66074600   -0.15933800   -1.53834500
 C                0   -5.74785600    0.98208700   -1.24905500
 O                0   -6.69704600    0.80734300   -2.30392500
 C                0   -5.70871300   -0.32368400   -0.45285800
 C                0   -4.67551300   -1.12394400   -1.24186000
 O                0    0.13475800    3.24151500   -1.74777400
 O                0   -1.84346300    4.72702700   -0.99667100
 O                0   -1.04834000    2.84055900    0.56447200
 H                0   -5.33601800   -0.13129500    0.55818600
 H                0   -6.02401700    1.84424800   -0.62423400
 H                0   -3.44462300    2.00231200   -0.01691000
 H                0   -4.21168700   -1.93980000   -0.68504200
 H                0   -6.69717300   -0.78636600   -0.39853100
 H                0   -4.30643400    1.29863400   -2.86269200
 H                0   -4.08937600    3.15526900   -1.21655300
 H                0    5.45605500    5.61402400   -1.15040600
 H                0    6.83442400    5.47273000   -0.04601800
 H                0   -6.57054600    1.52815600   -2.93466100
 H                0   -3.18384600    4.77795100    0.26187800
 H                0   -1.89730000    1.62132000    1.40903500
 H                0   -1.44404200    5.32468600   -0.32526000
 O                0    2.57989100   -1.67775900   -0.85467800
 H                0    2.15014400   -2.54311000   -0.92006100
 H                0    1.47667900   -0.65746700   -0.56256800
 O                0    4.53703100   -3.54090200    0.15724100
 H                0    4.65638800   -3.40060500   -0.81158900
 O                0    2.85173500    0.18467800    1.48376800
 H                0    3.48068200    0.86449600    1.20886600
 O                0    4.68036500   -2.45267100   -2.37130200
 H                0    3.86016200   -2.04265400   -1.99485300
 H                0    3.69802900   -4.05246000    0.28766500
 H                0    2.00711000    0.35624900    0.98328900
 H                0    5.35532600   -1.76162700   -2.28193500
 H                0    1.47875300    2.56929900   -1.51288100
 H                0   -5.11182400   -1.52867700   -2.16642000
 Mg               0    3.63998800   -1.69867900    0.84968800
 C                0   -2.80316400   -3.61729100    1.15862000
 C                0   -3.98468000   -4.30124900    1.10038400
 H                0   -2.43447400   -3.14170300    2.05747200
 H                0   -4.61227100   -4.41477100    1.97514000
 N                0   -2.01955800   -3.48539000    0.06867000
 N                0   -3.55340600   -4.78364100   -1.23456900
 C                0   -4.32848700   -4.85725000   -0.16981100
 C                0   -2.33011600   -4.16104000   -1.15646800
 N                0   -5.51425000   -5.54292800   -0.31153900
 H                0   -6.27120000   -5.30207700    0.30998100
 H                0   -5.77352100   -5.72261600   -1.27157300
 O                0   -1.51390700   -4.12197400   -2.06719600
 H                0    1.70494900   -4.15809000    4.13912500
 H                0    6.71674100   -2.96332300    0.30753000
 H                0   -1.37978000    3.34302000    3.36658400
 H                0   -2.42404800    3.44293600    4.80298300
 H                0   -3.07920600    2.94628600    3.22619300
 H                0   -2.00380600    5.76289500    3.93322900
 H                0   -3.71392000    5.33103100    3.69222900

