%nprocshared=8
%mem=30GB
# opt=maxstep=5 b3lyp/6-31g(d,p) empiricaldispersion=gd3

Title Card Required

-1 1
 C               -1    5.52907800    3.95345700   -0.97585400
 C                0    4.76227000    3.05152100   -0.00660800
 C                0    3.34080800    2.82466400   -0.50391600
 N                0    2.90056700    1.57417900   -0.49421400
 O                0    2.66899100    3.81323600   -0.89391900
 H                0    5.66008300    3.46173100   -1.94574900
 H                0    5.25806200    2.09079300    0.15833700
 H                0    4.68797000    3.54406600    0.96896000
 H                0    3.48801700    0.83418800   -0.08327400
 H                0    1.97540600    1.36520500   -0.88085600
 C               -1    1.24008900    6.88063500   -0.10327400
 C                0   -0.05877600    7.07822100    0.70576200
 C                0   -1.24705100    6.49068400   -0.05739400
 O                0   -1.65224000    5.33115200    0.28620600
 O                0   -1.68522900    7.16884200   -1.02267500
 H                0    2.04470900    7.50245800    0.31778100
 H                0    0.01670100    6.60565600    1.69170100
 H                0   -0.23645000    8.14976200    0.84559500
 C               -1    1.47809500    3.26037300   -4.15203400
 C                0    0.80980400    1.88041900   -3.93273800
 C                0   -0.05850200    1.82043600   -2.67333900
 O                0    0.37506500    1.15647300   -1.68224100
 O                0   -1.15459700    2.46138900   -2.66506600
 H                0    2.11745600    3.53540900   -3.30976300
 H                0    0.71600800    4.02970700   -4.31562700
 H                0    0.16954500    1.65323200   -4.79183500
 H                0    1.57283600    1.10123900   -3.85546700
 C               -1    4.29565900   -2.22209600   -6.03288800
 C                0    4.37214200   -3.18828600   -4.84161300
 C                0    3.25468500   -2.95083700   -3.85275000
 C                0    2.08542100   -3.72062600   -3.87431500
 C                0    3.33803000   -1.90873900   -2.92041100
 C                0    1.03531100   -3.46736300   -2.99558400
 C                0    2.30473400   -1.64732200   -2.02734400
 C                0    1.14805600   -2.42781500   -2.06909000
 O                0    0.10592500   -2.21848900   -1.21482200
 H                0    3.34546500   -2.33901800   -6.56476300
 H                0    4.33259400   -4.22234800   -5.20630900
 H                0    5.34276500   -3.07059500   -4.34385200
 H                0    1.99673800   -4.53831500   -4.58653200
 H                0    4.23204500   -1.29411200   -2.88296800
 H                0    0.13993700   -4.07855200   -2.99388300
 H                0    2.38838900   -0.86724200   -1.28461100
 H                0    0.35836300   -1.60637400   -0.47288500
 C               -1   -2.40260700   -6.42424800   -2.05701700
 C                0   -3.03582700   -5.02623600   -1.99044300
 C                0   -3.16269000   -4.44160500   -0.58605500
 N                0   -2.04017500   -4.40501300    0.15966700
 O                0   -4.25107500   -3.99943300   -0.18013200
 H                0   -1.36950300   -6.41403100   -1.69410500
 H                0   -2.46126700   -4.30920100   -2.59042500
 H                0   -4.05087000   -5.04214200   -2.39603900
 H                0   -1.10789100   -4.66919200   -0.16367300
 H                0   -2.07895400   -4.02933000    1.10006200
 C               -1    6.66648600   -2.38664800   -1.52520400
 C                0    6.20747600   -1.10370500   -0.83832300
 C                0    5.05623200   -1.27428100    0.17344700
 O                0    4.68940900   -0.18372400    0.73622900
 O                0    4.57848500   -2.41067900    0.36892700
 H                0    7.04230000   -3.10297900   -0.78838200
 H                0    7.03615700   -0.62329400   -0.30257900
 H                0    5.87316100   -0.35839100   -1.57239400
 C               -1    3.69102500   -6.30984200    0.48309400
 C                0    3.14773300   -5.25010900   -0.49105800
 C                0    1.84506800   -4.67521500    0.04344100
 N                0    1.97104300   -3.58944400    0.83005200
 O                0    0.75981700   -5.24427600   -0.18347400
 H                0    3.94191000   -5.85267400    1.44560400
 H                0    3.88155700   -4.45114200   -0.62742400
 H                0    2.92224100   -5.69929800   -1.46161500
 H                0    2.84634300   -3.05235600    0.82423200
 H                0    1.12833600   -3.10317300    1.11099100
 C               -1    5.56328300    4.10432800    4.96868900
 C                0    4.82586900    4.79015600    3.80252100
 C                0    3.62273400    4.05705200    3.27424300
 C                0    3.18883900    2.76049900    3.36779200
 N                0    2.69880100    4.68798000    2.43519900
 C                0    1.75660600    3.81064500    2.04581100
 N                0    2.04206200    2.64770200    2.60987000
 H                0    5.93026300    3.11712300    4.67217900
 H                0    4.50855600    5.79374700    4.11621000
 H                0    5.53127000    4.94306300    2.97334400
 H                0    2.75917500    5.62864900    2.07111500
 H                0    3.58846900    1.88866300    3.85857000
 H                0    0.93150600    3.99123300    1.36785700
 C                0   -3.15410300   -1.38511500   -2.29465900
 O                0   -2.02350000   -1.96159900   -2.91339800
 C                0   -2.79525100   -0.34569100   -1.22991500
 O                0   -3.99254700    0.44676300   -0.98173600
 C                0   -2.42715200   -0.90558600    0.14899700
 O                0   -1.68397200    0.12342500    0.83476100
 C                0   -3.77151200   -1.03409000    0.85552700
 C                0   -4.45279800    0.24173800    0.36772700
 H                0   -4.15103700    1.09386300    0.97565500
 H                0   -4.25460900   -1.96181900    0.54345200
 H                0   -1.86876500   -1.83938400    0.09898100
 H                0   -2.00662700    0.31620400   -1.59364200
 H                0   -3.81639500   -2.14620800   -1.85325100
 H                0   -3.64267800   -1.04678600    1.93844000
 H                0   -3.72764000   -0.86119900   -3.06772300
 P                0   -0.41839200   -0.19312900    1.78111200
 C                0   -0.20555800   -1.86501700    3.77845800
 O                0   -1.10014000   -1.18985100    2.88309000
 C                0   -0.72234200   -3.27093700    4.01807000
 O                0   -0.81528300   -3.95978800    2.76798300
 C                0    0.22990200   -4.10191700    4.91998900
 O                0   -0.48180500   -4.88954200    5.87798600
 C                0    0.87573400   -5.06511700    3.92127600
 C                0   -0.25792500   -5.27866400    2.92308900
 O                0   -0.06055200    1.13583500    2.41574700
 O                0    2.87062700   -0.23833000    2.76136600
 O                0    0.66638500   -0.94764200    1.03101500
 H                0    1.71743900   -4.58278800    3.41596900
 H                0    0.96919800   -3.46028500    5.42240400
 H                0    0.80822600   -1.90665200    3.36533000
 H                0    0.05674200   -5.61347000    1.93483200
 H                0    1.21713000   -5.97723300    4.41637100
 H                0   -1.72211400   -3.21930800    4.47822200
 H                0   -0.16604100   -1.31328300    4.72687100
 H                0    4.90128200    3.97506900    5.82994500
 H                0    6.42072700    4.70844500    5.27579500
 H                0    7.46042200   -2.18965800   -2.25554100
 H                0    5.83015300   -2.87073000   -2.03494200
 H                0    5.11187900   -2.39086400   -6.74580700
 H                0    4.35241300   -1.18366600   -5.68976100
 H                0   -2.96523500   -7.14190700   -1.45012600
 H                0    2.94555000   -7.09321600    0.65765900
 H                0    4.59724100   -6.77919400    0.08608700
 H                0   -1.02389900   -4.28976900    6.40685200
 H                0    4.97594600    4.88082600   -1.14526100
 H                0    6.52361100    4.19642400   -0.58696800
 H                0   -2.39132300   -6.78903000   -3.08942200
 H                0    1.58018200    5.84786600   -0.12192600
 H                0    1.08789600    7.19158700   -1.13831100
 H                0    3.64786800   -0.28950000    2.15439100
 H                0   -1.31924200   -2.07147700   -2.24419200
 H                0    2.10240200    3.23056900   -5.05125800
 H                0    2.16456500   -0.49887400    2.14487200
 O                0   -3.53847600    3.11092700   -0.92525600
 H                0   -3.66930800    2.16318000   -1.15535200
 H                0   -4.17142500    3.25796300   -0.20151700
 O                0    0.27190900    4.64389500   -1.68783900
 H                0    0.36993900    4.82966000   -2.62597900
 O                0   -0.51031900    2.72382600    0.18422400
 H                0   -0.75440000    2.33001700    1.03887000
 O                0   -2.41432500    5.23874400   -2.54721000
 H                0   -3.36177500    5.05018000   -2.54130700
 H                0    1.10279400    4.19051400   -1.39273000
 H                0   -0.19273200    1.96378900   -0.38630300
 H                0   -2.27933900    6.09815900   -2.01905500
 H                0    1.40102900    1.81059300    2.52129300
 H                0   -1.01655500   -5.96171300    3.33194500
 Mg               0   -1.60547200    3.86095400   -1.15675600
 C                0   -6.62089000   -0.83722900   -0.03327600
 C                0   -7.97525700   -0.78917500   -0.13823700
 H                0   -6.05761400   -1.74064200   -0.24007500
 H                0   -8.54475900   -1.65918500   -0.43922200
 N                0   -5.90946600    0.25888800    0.34862000
 N                0   -7.91703800    1.55842700    0.47777300
 C                0   -8.59263000    0.46715300    0.16645200
 C                0   -6.55166800    1.53516800    0.51001500
 N                0   -9.95208900    0.58021500    0.10580100
 H                0  -10.52400200   -0.24779500    0.13443700
 H                0  -10.34271700    1.43602300    0.47073700
 O                0   -5.86255000    2.53830200    0.69040600

