%nprocshared=8
%mem=30GB
# freq b3lyp/6-31g(d,p) empiricaldispersion=gd3

M1 TS2 fopt2

-1 1
 C               -1    6.22161700   -2.40197500    1.79085000
 C                0    6.61735800   -1.26227900    0.83907300
 C                0    5.55633800   -1.01334400   -0.22738200
 O                0    4.37587900   -0.79478200    0.18386800
 O                0    5.89201000   -1.02503800   -1.44756800
 H                0    6.97903900   -2.54035300    2.56928200
 H                0    6.72411300   -0.33150700    1.41146100
 H                0    7.57082800   -1.46164900    0.34240800
 C               -1    2.15755100   -2.24397200    5.39846200
 C                0    1.65136500   -1.51248100    4.15951900
 C                0    2.20702000   -2.06455500    2.84982300
 O                0    3.04844400   -2.98185800    2.86310200
 O                0    1.74212800   -1.49869500    1.78463300
 H                0    3.24873400   -2.20174200    5.44944000
 H                0    1.87979800   -3.30130200    5.36526300
 H                0    0.55641700   -1.53812600    4.09161400
 H                0    1.91013900   -0.44651700    4.18801700
 C               -1   -0.69811700    3.58398100    4.00474300
 C                0   -0.21593000    3.77630400    2.58921600
 O                0    0.48741400    2.75286300    2.15372700
 O                0   -0.50201600    4.77313700    1.92333800
 H                0    0.10056600    3.17618500    4.62926700
 H                0   -1.50905500    2.84780100    3.96956100
 C               -1    5.91521000    2.28629500   -1.60851600
 C                0    4.57274300    2.02344300   -2.19894800
 C                0    3.53576900    2.85864700   -2.49969900
 N                0    4.12369600    0.74408800   -2.48331100
 C                0    2.85433400    0.80359800   -2.90533800
 N                0    2.48840300    2.08333400   -2.94983000
 H                0    6.70278600    1.75271200   -2.14836200
 H                0    5.94919500    1.94821800   -0.56703300
 H                0    4.67849300   -0.10311800   -2.22399800
 H                0    3.42960600    3.92634800   -2.40337200
 H                0    2.23395600   -0.05895100   -3.09741500
 C                0   -1.29556100   -1.65407300    1.40263600
 O                0   -0.62031200   -0.41267200    1.44073300
 C                0   -1.18040600   -2.35281100    0.04401600
 O                0   -2.13751400   -3.45351900    0.03575300
 C                0   -1.51694900   -1.50522800   -1.20565600
 O                0   -0.45066600   -0.79726500   -1.78295900
 C                0   -2.12407300   -2.56743200   -2.13394600
 C                0   -2.89491600   -3.44599600   -1.15621300
 H                0   -3.04624600   -4.47016100   -1.50116900
 H                0   -2.73985400   -2.16658500   -2.93643800
 H                0   -2.28243500   -0.76677000   -0.94043600
 H                0   -0.17319800   -2.77279400   -0.07540600
 H                0   -2.34789000   -1.44494200    1.60878700
 H                0   -1.31391300   -3.15616400   -2.57881000
 H                0   -0.93536100   -2.33368900    2.18642700
 P                0    0.08861400    3.71049500   -1.26552800
 C                0   -1.91063400    2.13114400   -0.41030800
 O                0   -1.48012700    3.34019000   -1.03874500
 C                0   -3.01978200    2.44096100    0.57545700
 O                0   -4.24464100    2.72373000   -0.11915500
 C                0   -3.36147900    1.26834500    1.51164600
 O                0   -2.51613200    1.12422000    2.62812000
 C                0   -4.78601700    1.62935400    1.92658800
 C                0   -5.35483100    2.21625900    0.63001500
 O                0    0.45583500    3.62467600   -2.73013000
 O                0    0.13035500    5.23775600   -0.76883800
 O                0    0.95339300    2.86184500   -0.31074700
 H                0   -5.35487000    0.77511100    2.30470300
 H                0   -3.39026200    0.34453400    0.90958900
 H                0   -2.28507000    1.44382300   -1.17737000
 H                0   -5.86048700    1.44062400    0.03270700
 H                0   -4.72742900    2.38296000    2.71967300
 H                0   -2.71443300    3.30514900    1.18438200
 H                0   -1.08534400    1.64809400    0.11861300
 H                0   -1.67167900    0.73406700    2.31268400
 H                0    5.25954400   -2.20311400    2.26599100
 H                0    6.12999900   -3.34737300    1.24414000
 H                0    0.70594900    2.86181400    1.14938600
 H                0    0.33656500   -0.59675500    1.62350800
 H                0    1.74569300   -1.80360600    6.31288100
 H                0   -0.08661200    5.23139600    0.19380100
 O                0    1.78573800   -2.06964500   -1.83614100
 H                0    1.61897000   -3.02091800   -1.79170300
 H                0    0.36067700   -1.40220900   -1.92043100
 O                0    3.05325200   -3.47944200    0.23687500
 H                0    3.79179700   -3.67988500   -0.37352900
 O                0    1.53086500    0.30912800   -0.41910200
 H                0    1.52444600    1.28910900   -0.31318500
 O                0    4.37120000   -3.30364500   -2.15406500
 H                0    3.53552800   -2.81516100   -2.30632000
 H                0    3.30578800   -3.50619700    1.19170600
 H                0    0.65324400    0.10266800   -0.81681700
 H                0    5.03531000   -2.59456100   -2.07369100
 H                0    1.52038800    2.54293500   -3.01589800
 H                0   -6.07731300    3.02333100    0.81233000
 Mg               0    2.52257600   -1.45016900   -0.07757800
 C                0   -4.62673000   -2.38879700    0.30499000
 C                0   -5.82200700   -1.75588800    0.47670600
 H                0   -3.91768600   -2.54174900    1.10591200
 H                0   -6.12096900   -1.37295700    1.44354200
 N                0   -4.26084300   -2.87518300   -0.90202500
 N                0   -6.33848800   -2.16294200   -1.85529900
 C                0   -6.63528700   -1.61635500   -0.69209800
 C                0   -5.17622800   -2.87468800   -2.00648100
 N                0   -7.81054300   -0.90951400   -0.61355800
 H                0   -7.88004600   -0.19779800    0.09813400
 H                0   -8.21682400   -0.67665400   -1.50915000
 O                0   -4.85687400   -3.47748000   -3.02501000
 H                0    6.13173000    3.35675100   -1.62908900
 H                0   -1.06601600    4.52702700    4.40997000

