%nprocshared=8
%mem=30GB
# freq b3lyp/6-31g(d,p) empiricaldispersion=gd3

PC-185

-2 1
 C               -1    0.63309300    5.49992200    2.08785200
 C                0   -0.80448400    5.83979000    2.47764300
 C                0   -1.77888000    4.65578000    2.35889400
 O                0   -1.26369400    3.54775500    1.98509100
 O                0   -2.97866800    4.85639200    2.63261500
 H                0    1.04869100    4.74088100    2.75804600
 H                0   -0.86708900    6.22061100    3.50537700
 H                0   -1.20445300    6.63746700    1.83978500
 C               -1    1.90481700    4.45715400   -1.74547100
 C                0    0.56117700    4.49602100   -2.48382300
 C                0   -0.62095800    3.97671000   -1.67037000
 O                0   -0.36240200    3.02840400   -0.85241600
 O                0   -1.76538600    4.46543200   -1.86233100
 H                0    2.11499100    3.43900300   -1.42060400
 H                0    1.90402400    5.12243400   -0.87253600
 H                0    0.31308500    5.49904000   -2.84821300
 H                0    0.64295800    3.82495400   -3.34686600
 C               -1    7.81648300   -0.98053200   -2.59183200
 C                0    6.65799800   -0.05568400   -2.20769800
 C                0    5.32427200   -0.70791200   -2.51837600
 O                0    4.91105700   -1.69439200   -1.91956800
 O                0    4.67765000   -0.12029200   -3.51573500
 H                0    7.71717600   -1.93097500   -2.06530500
 H                0    6.69751700    0.11825500   -1.12889000
 H                0    6.72244400    0.90328800   -2.72826200
 C               -1    9.79436500   -3.44002400    0.01238300
 C                0    9.24444100   -3.16290300    1.41257000
 C                0    8.15637800   -2.08947200    1.41204200
 O                0    7.49380900   -2.03006800    2.55225300
 O                0    7.95592800   -1.37702000    0.43809700
 H                0   10.15768800   -2.51587200   -0.44328900
 H                0    8.82802500   -4.06624000    1.87223900
 H                0   10.04018300   -2.82333500    2.08963800
 C               -1    4.47291600   -0.30417800    5.31728500
 C                0    4.80742300    0.76329700    4.26236500
 C                0    4.54770800    0.31542100    2.85603600
 C                0    3.50572600    0.64815600    2.02468500
 N                0    5.38519900   -0.56244400    2.18867300
 C                0    4.85488600   -0.74177600    0.98174200
 N                0    3.71566700   -0.02971000    0.84391900
 H                0    5.05572300   -1.21374500    5.13827900
 H                0    4.21843200    1.66705200    4.45809800
 H                0    5.86349800    1.04839400    4.35956800
 H                0    6.68033400   -1.36005500    2.46501600
 H                0    2.62973800    1.25868900    2.16890800
 H                0    5.26780000   -1.35134600    0.19222100
 H                0    1.73592800   -1.48107100   -2.81942300
 Mg               0   -1.47152700    2.15406100    0.59640400
 C                0   -5.02085100   -1.25218800    0.69928000
 C                0   -4.32399900   -0.76481400   -0.57384200
 C                0   -5.37371200    0.10338100   -1.28191300
 O                0   -4.87208300    1.10825400   -2.12385400
 C                0   -6.17303100    0.64178900   -0.08064000
 O                0   -6.16557600   -0.42501200    0.89906500
 C                0   -7.62693400    0.98565400   -0.37461200
 O                0   -8.42752800   -0.18444900   -0.57490400
 N                0   -5.49038100   -2.66506600    0.61225000
 C                0   -4.76319100   -3.68345900    1.29364300
 O                0   -3.74460400   -3.38582800    1.92017000
 N                0   -5.25208100   -4.96269900    1.22774200
 C                0   -6.30090300   -5.23630800    0.47655600
 N                0   -6.69098100   -6.55497500    0.41472000
 C                0   -7.00953500   -4.25311300   -0.27620700
 C                0   -6.55840700   -2.97058900   -0.15981000
 H                0   -7.85571100   -4.49647800   -0.90655200
 H                0   -7.03824600   -2.13736400   -0.65924100
 H                0   -7.65107300   -6.75333200    0.17992800
 H                0   -4.35715300   -1.20519200    1.56091700
 H                0   -6.27178300   -7.14506900    1.11936300
 H                0   -3.92755500   -1.59012300   -1.16851600
 H                0   -6.03995900   -0.50833100   -1.90623000
 H                0   -5.66465200    1.51747500    0.33712200
 H                0   -8.04470000    1.59750700    0.43877400
 H                0   -3.50492300   -0.12441200   -0.23722700
 H                0   -7.66063000    1.57281100   -1.29784400
 C                0   -0.84799900   -0.18239800   -1.66830000
 O                0    0.53510000   -2.23778000   -1.72562400
 P                0    1.50891300    0.64883400   -2.57251800
 O                0    1.91149400    1.80886800   -3.40941500
 O                0    2.14854600   -0.71493400   -3.27633800
 O                0   -1.78228400   -3.39285700   -0.10213600
 O                0   -0.09432700    0.31883700   -2.75934300
 C                0   -0.79647800   -1.71197900   -1.51031500
 C                0   -1.17178000   -2.10657400   -0.07557500
 C                0    0.20778700   -2.11864700    0.61202900
 C                0    1.12124100   -2.66748500   -0.47945900
 H                0   -1.88592100    0.12375500   -1.82709600
 H                0   -0.49919700    0.26564600   -0.74011400
 H                0   -1.45341600   -2.20210800   -2.23575800
 H                0   -1.82270900   -1.35893800    0.39086500
 H                0    0.50349800   -1.10043000    0.88008800
 H                0    0.19578200   -2.73370500    1.51582700
 H                0    1.14367600   -3.76530900   -0.46781300
 H                0    2.14336300   -2.28107200   -0.43602200
 O                0    0.59157200    1.53246000    1.07351200
 H                0    0.82295800    2.47151900    1.14963500
 H                0    1.03237900    1.25475000    0.21475800
 O                0   -2.50564400    0.70395600    1.39051400
 H                0   -2.08079700    0.27931700    2.14430900
 H                0   -4.22506400    1.65404300   -1.61722200
 O                0   -3.16371400    2.69112600   -0.58299400
 H                0   -3.77300800    2.94298900    0.16251400
 H                0   -2.78263100    3.48960600   -1.08585000
 O                0   -4.40645100    2.67014700    1.75473700
 H                0   -3.79707100    1.89072000    1.83207000
 H                0   -3.92530900    3.41874200    2.18822700
 O                0    1.83846900    0.56885000   -1.07078800
 H                0    3.73790000   -0.47239900   -3.53805000
 H                0    3.12401200    0.07106800   -0.00461000
 H                0   -8.26315100   -0.71045400    0.22188000
 H                0   -2.27373000   -3.49262400    0.73168700
 H                0   10.61181200   -4.16903200    0.04496200
 H                0    9.00857700   -3.82920600   -0.64130700
 H                0    7.83294800   -1.16705100   -3.67256400
 H                0    8.77493200   -0.54144300   -2.29920900
 H                0    3.41280500   -0.57297300    5.26895300
 H                0    4.69317000    0.05146600    6.33123800
 H                0    0.66049300    5.08775800    1.07595600
 H                0    1.28191500    6.38373500    2.12429700
 H                0    2.71661900    4.76867600   -2.41158700

 1 2 1.0 6 1.0 118 1.0 119 1.0
 2 3 1.0 7 1.0 8 1.0
 3 4 2.0 5 2.0
 4 48 1.0
 5
 6
 7
 8
 9 10 1.0 14 1.0 15 1.0 120 1.0
 10 11 1.0 16 1.0 17 1.0
 11 12 2.0 13 2.0
 12 48 1.0
 13
 14
 15
 16
 17
 18 19 1.0 23 1.0 114 1.0 115 1.0
 19 20 1.0 24 1.0 25 1.0
 20 21 2.0 22 1.5
 21
 22 108 1.0
 23
 24
 25
 26 27 1.0 31 1.0 112 1.0 113 1.0
 27 28 1.0 32 1.0 33 1.0
 28 29 1.5 30 2.0
 29
 30
 31
 32
 33
 34 35 1.0 41 1.0 116 1.0 117 1.0
 35 36 1.0 42 1.0 43 1.0
 36 37 2.0 38 1.0
 37 40 1.5 45 1.0
 38 39 1.5
 39 40 1.5 46 1.0
 40 109 1.0
 41
 42
 43
 44
 45
 46
 47 80 1.0
 48 98 1.0 101 1.0
 49 50 1.0 54 1.0 57 1.0 68 1.0
 50 51 1.0 70 1.0 74 1.0
 51 52 1.0 53 1.0 71 1.0
 52 100 1.0
 53 54 1.0 55 1.0 72 1.0
 54
 55 56 1.0 73 1.0 75 1.0
 56 110 1.0
 57 58 1.0 64 1.5
 58 59 2.0 60 1.5
 59
 60 61 2.0
 61 62 1.5 63 1.5
 62 67 1.0 69 1.0
 63 64 2.0 65 1.0
 64 66 1.0
 65
 66
 67
 68
 69
 70
 71
 72
 73
 74
 75
 76 82 1.0 83 1.0 87 1.0 88 1.0
 77 83 1.0 86 1.0
 78 79 2.0 80 1.0 82 1.0 107 1.5
 79
 80
 81 84 1.0 111 1.0
 82
 83 84 1.0 89 1.0
 84 85 1.0 90 1.0
 85 86 1.0 91 1.0 92 1.0
 86 93 1.0 94 1.0
 87
 88
 89
 90
 91
 92
 93
 94
 95 96 1.0 97 1.0
 96
 97
 98 99 1.0
 99
 100
 101 102 1.0
 102
 103
 104 105 1.0 106 1.0
 105
 106
 107
 108
 109
 110
 111
 112
 113
 114
 115
 116
 117
 118
 119
 120

eps=4









