%chk=HTrunc_RC_opt5.chk
%nprocshared=8
%mem=3GB
# opt b3lyp/6-31g(d,p) empiricaldispersion=gd3

M1 TS1 opt4

-1 1
 C               -1   -1.53657300    5.85082000    0.74612700
 C                0   -1.02628600    6.41713100   -0.59247500
 C                0    0.24703800    5.67915000   -1.00333500
 O                0    0.12341000    4.41153800   -1.16039800
 O                0    1.32910900    6.31141800   -1.07638700
 H                0   -2.46601000    6.34493000    1.05383200
 H                0   -1.78135500    6.27910200   -1.38001800
 H                0   -0.81578300    7.48733500   -0.52000400
 C               -1   -0.04090800    2.12633100    4.41316900
 C                0    1.29856500    1.49976500    3.97030400
 C                0    1.95442200    2.43651600    2.95970000
 O                0    2.38808800    3.53365500    3.39066200
 O                0    1.92529700    2.09162000    1.72241000
 H                0   -0.72047700    2.24484500    3.56173700
 H                0    0.13544200    3.11584100    4.84327700
 H                0    1.95738500    1.40667300    4.84051600
 H                0    1.13945800    0.50739600    3.54111400
 C               -1   -5.25499000   -3.98705400    3.34193300
 C                0   -5.82744000   -4.21112800    1.94247400
 C                0   -5.61796500   -3.04261300    0.94935600
 O                0   -5.03882400   -2.00402800    1.37448100
 O                0   -6.04443800   -3.24912500   -0.22820800
 H                0   -4.16724800   -3.88657700    3.31629400
 H                0   -5.40291400   -5.11366700    1.48489000
 H                0   -6.90901900   -4.39411700    1.99033400
 C               -1   -6.49036300    2.92354000   -1.31359900
 C                0   -5.01476300    2.77989000   -1.50477200
 C                0   -4.27489600    1.66284500   -1.78287700
 N                0   -4.09244800    3.82470300   -1.41220000
 C                0   -2.84655600    3.35387800   -1.61414500
 N                0   -2.95530900    2.05362900   -1.85760800
 H                0   -6.72557900    3.50052900   -0.41243000
 H                0   -6.90310200    1.91727700   -1.19688800
 H                0   -4.30130000    4.78151700   -1.16978400
 H                0   -4.61163700    0.62836900   -1.82605000
 H                0   -1.90453700    3.89373500   -1.53484500
 C                0    2.38487500   -1.34306100    1.76016400
 O                0    1.15346700   -1.67842600    2.38316900
 C                0    2.11778100   -0.80601000    0.35942300
 O                0    3.30240300   -0.31268300   -0.32662100
 C                0    1.52471400   -1.86011100   -0.57526500
 O                0    0.63993100   -1.25773100   -1.53763000
 C                0    2.74744300   -2.41176500   -1.30696100
 C                0    3.78670900   -1.27414800   -1.24812900
 H                0    3.93337200   -0.79688200   -2.21944800
 H                0    3.13222600   -3.29068700   -0.78450500
 H                0    0.98662500   -2.63296000   -0.03376900
 H                0    1.48059800    0.06413800    0.48383900
 H                0    3.01906200   -2.24160400    1.72815200
 H                0    2.51664200   -2.70239800   -2.32980000
 H                0    2.91730200   -0.56735400    2.32896000
 P                0   -0.73200400   -0.56545500   -0.97316200
 C                0   -2.80264400   -2.25252100   -1.01028100
 O                0   -1.97531600   -1.27672700   -1.70307800
 C                0   -2.19784700   -3.64470300   -1.14474400
 O                0   -0.90723800   -3.69760500   -0.52146400
 C                0   -3.03807100   -4.71509600   -0.43272200
 O                0   -2.70731000   -6.03259700   -0.89392400
 C                0   -2.50883100   -4.58973200    0.99588600
 C                0   -1.01512300   -4.32558800    0.77297600
 O                0   -0.68910700    0.84042600   -1.63362600
 O                0   -5.80987200   -0.62637500   -0.91091800
 O                0   -0.79516600   -0.60589400    0.53242300
 H                0   -2.99406800   -3.74153300    1.48285400
 H                0   -4.11228700   -4.51911800   -0.51673200
 H                0   -2.91671700   -1.96104200    0.03530300
 H                0   -0.57439200   -3.66090400    1.52381200
 H                0   -2.70542500   -5.49333500    1.57695600
 H                0   -2.05681800   -3.87491300   -2.20902300
 H                0   -3.78908600   -2.19389600   -1.47187900
 H                0   -5.50495800   -4.81756700    4.01429000
 H                0   -5.64563000   -3.05871200    3.76761400
 H                0   -3.01630500   -6.09857500   -1.80648500
 H                0   -1.70746800    4.77414600    0.67476000
 H                0   -0.78802700    5.99305400    1.52773200
 H                0   -5.41028200   -0.73773000   -0.01875600
 H                0    0.41723000   -1.27999700    1.87353400
 H                0   -0.54314500    1.49765300    5.15486100
 H                0   -6.07243100   -1.57264300   -1.00652400
 O                0    1.78331500    1.85745500   -1.34181300
 H                0    2.40618300    1.14725000   -1.09405200
 H                0    0.95235900    1.41963900   -1.65701900
 O                0    1.42382800    4.91907300    1.49332000
 H                0    1.88786000    5.67657300    1.11470900
 O                0   -0.55245800    2.38311500    0.61779500
 H                0   -0.78933100    1.89768400   -0.20451400
 O                0    3.00439100    4.27109000   -0.81116400
 H                0    3.03105100    3.74633500   -1.62441500
 H                0    1.95238300    4.54506400    2.27439700
 H                0   -0.40975100    1.65337300    1.24228100
 H                0    2.51969900    5.11172800   -1.06134600
 H                0   -2.09264900    1.43406800   -1.93029500
 H                0   -0.44402600   -5.26258700    0.74647700
 Mg               0    1.32909600    3.28522300    0.15778800
 C                0    5.67075000   -1.36961800    0.37661500
 C                0    6.89690700   -1.83166300    0.75351600
 H                0    5.08178500   -0.68593000    0.97451800
 H                0    7.34620100   -1.52593100    1.68963300
 N                0    5.12505900   -1.74428100   -0.80376700
 N                0    7.04824600   -3.06882000   -1.32957100
 C                0    7.55534300   -2.71019900   -0.16401400
 C                0    5.82397600   -2.59509800   -1.72087000
 N                0    8.80228200   -3.19165400    0.14145200
 H                0    9.08688000   -3.21967500    1.10771100
 H                0    9.12857900   -3.94157700   -0.45070600
 O                0    5.28023400   -2.85602500   -2.78842400
 H                0   -6.97201500    3.41184500   -2.16881700

