%nprocshared=8
%mem=30GB
# freq b3lyp/6-31g(d,p) empiricaldispersion=gd3

M1 TS1 opt4

-1 1
 C               -1    6.32616000   -3.06746100    0.66663200
 C                0    5.37750400   -2.22761200   -0.16581600
 O                0    4.56481300   -1.44798600    0.50418500
 O                0    5.38835000   -2.30564300   -1.40012300
 H                0    6.82605600   -2.44289500    1.41356400
 H                0    7.06224900   -3.55990200    0.02888800
 C               -1    0.43501500   -3.11562300    4.66516700
 C                0    1.20339300   -3.36245100    3.36280200
 O                0    1.54681900   -4.52614700    3.08846700
 O                0    1.47017200   -2.31412900    2.64658100
 H                0    1.16177500   -2.88559500    5.45233700
 H                0   -0.11428100   -4.01345500    4.95242700
 C               -1   -0.14204000    5.54256600    2.66677500
 C                0   -0.24529300    5.37230700    1.17809000
 O                0    0.93421700    5.39064700    0.57929600
 O                0   -1.31340800    5.19890700    0.58736700
 H                0   -1.13182400    5.51645200    3.12139100
 H                0    0.36845300    6.48058400    2.90314500
 C               -1    6.26990300    3.86562000   -1.44872300
 C                0    5.91730700    2.44560600   -0.97254100
 C                0    4.73404900    1.83651900   -1.66775000
 C                0    3.90900400    2.28269300   -2.67104700
 N                0    4.25220300    0.58066200   -1.34294600
 C                0    3.19122500    0.31623000   -2.12765600
 N                0    2.94726100    1.32642600   -2.95448300
 H                0    5.42964200    4.54874700   -1.28876800
 H                0    6.78999800    1.79070100   -1.10345900
 H                0    5.72065300    2.46585100    0.10819200
 H                0    4.54997600   -0.08404300   -0.60854200
 H                0    3.93080300    3.22977700   -3.18917900
 H                0    2.61392100   -0.59356500   -2.04494400
 C                0   -1.74330400   -1.45539800    2.00589500
 O                0   -0.69283200   -0.61189400    2.43674100
 C                0   -1.47823400   -2.12581000    0.65865900
 O                0   -2.63289200   -2.94100100    0.36263400
 C                0   -1.30002400   -1.21805500   -0.57948200
 O                0   -0.00620900   -0.70625500   -0.76091800
 C                0   -1.76015400   -2.17089300   -1.69854100
 C                0   -2.89021700   -2.96378700   -1.03406900
 H                0   -2.96489800   -3.99067800   -1.39057100
 H                0   -2.07890700   -1.66317400   -2.60981700
 H                0   -1.97741200   -0.36211900   -0.51312300
 H                0   -0.58659500   -2.76274400    0.75289500
 H                0   -2.63204700   -0.82509000    1.91535700
 H                0   -0.93174500   -2.84216700   -1.94958700
 H                0   -1.96642100   -2.24528300    2.74102400
 P                0    0.36503600    2.56526900   -1.43177100
 C                0   -1.18244100    1.99932400    0.57586500
 O                0   -1.05894300    2.04507600   -0.86918900
 C                0   -2.58565800    2.40145800    0.98025800
 O                0   -3.48916100    1.28530300    0.88921100
 C                0   -2.66669000    2.92601500    2.44635400
 O                0   -3.26041400    4.22006000    2.50702700
 C                0   -3.58354800    1.90994300    3.13209400
 C                0   -4.42582800    1.40232900    1.96245800
 O                0    0.50667900    1.99559200   -2.87191800
 O                0    0.04338800    4.18169200   -1.66305500
 O                0    1.49653000    2.42127200   -0.47206700
 H                0   -2.98019200    1.09038300    3.53435100
 H                0   -1.67289000    2.94010600    2.91572100
 H                0   -0.94210600    1.00157200    0.94106500
 H                0   -4.87669700    0.41796900    2.12072500
 H                0   -4.16119800    2.37256300    3.93575000
 H                0   -2.93517100    3.19747900    0.31047800
 H                0   -0.46134200    2.68427100    1.02387500
 H                0    6.50947200    3.87187800   -2.51716300
 H                0    7.13526100    4.25070700   -0.90168600
 H                0   -2.80576300    4.75552500    1.83281700
 H                0    0.83230100    5.05154400   -0.34908200
 H                0    0.13065700   -1.14444300    2.53932500
 H                0   -0.82678600    4.40943400   -1.28711200
 O                0    1.64710500   -2.61399300   -0.62759800
 H                0    1.11030600   -3.39709000   -0.44801300
 H                0    0.64706200   -1.49538700   -0.83274900
 O                0    3.40901400   -4.01128300    1.29008200
 H                0    3.44228800   -4.43314200    0.39630800
 O                0    1.94146900   -0.07722200    0.92940100
 H                0    2.28898900    0.72300100    0.50169400
 O                0    3.50172800   -4.45464800   -1.40166000
 H                0    2.83418500   -3.72745100   -1.38494800
 H                0    2.72618400   -4.44024100    1.86992300
 H                0    1.04204000   -0.15087200    0.52508100
 H                0    4.31519800   -3.96759400   -1.62162600
 H                0    1.51829000    1.67292700   -3.05784400
 H                0   -5.21957500    2.12330000    1.70996000
 Mg               0    2.68973400   -2.05230600    0.98582100
 C                0   -4.65793700   -1.28844500   -0.61029500
 C                0   -5.85802000   -0.70613000   -0.88670100
 H                0   -4.00241100   -0.90831900    0.15886900
 H                0   -6.19363900    0.16362100   -0.33683200
 N                0   -4.22780500   -2.37162000   -1.29856300
 N                0   -6.22518000   -2.35723700   -2.62357900
 C                0   -6.62626500   -1.30964400   -1.92931500
 C                0   -5.00109800   -2.92730400   -2.37363000
 N                0   -7.87501600   -0.81298500   -2.22285300
 H                0   -8.06145500    0.15160000   -1.99494300
 H                0   -8.25797200   -1.14265800   -3.09772700
 O                0   -4.53756600   -3.86271200   -3.01551100
 H                0    0.47325500    4.73013100    3.06510300
 H                0   -0.23512500   -2.25789800    4.56929800
 H                0    5.73313700   -3.80945400    1.20735000

