%chk=DTrunc_TS1_tsopt1.chk
%nprocshared=8
%mem=32GB
# opt=(calcfc,ts,noeigen) b3lyp/6-31g(d,p) empiricaldispersion=gd3

M1 TS1 opt4

-1 1
 C               -1    4.72583400   -3.89194500    1.18297700
 C                0    4.66166800   -4.62101000   -0.17136900
 C                0    3.22228900   -4.66004300   -0.68789500
 O                0    2.66090200   -3.52352600   -0.87759700
 O                0    2.65736100   -5.77413300   -0.82807600
 H                0    5.75437700   -3.85273100    1.55888600
 H                0    5.28642800   -4.09172600   -0.90379500
 H                0    5.03511900   -5.64575800   -0.09210300
 C               -1    0.98607400   -1.33736300    4.19032300
 C                0   -0.46620500   -1.70376300    3.82173000
 C                0   -0.40620600   -2.89724900    2.87651500
 O                0   -0.17470800   -4.02538600    3.37755700
 O                0   -0.47285000   -2.65292000    1.61878900
 H                0    1.56107600   -1.09757300    3.29180000
 H                0    1.46986200   -2.18391600    4.68700000
 H                0   -1.01716200   -1.98756400    4.72477500
 H                0   -0.95986500   -0.85005800    3.35278700
 C               -1    3.19752000    6.09940800    1.58661500
 C                0    3.01012700    4.84746700    0.73298800
 O                0    2.62104200    3.80357200    1.39939500
 O                0    3.18500900    4.89487800   -0.49530200
 H                0    3.72619800    6.87026600    1.02345700
 H                0    3.73394500    5.85809100    2.50831400
 C               -1    7.95097100    1.43252500   -2.47358600
 C                0    7.46681700    1.02991800   -1.06773200
 C                0    6.13491600    0.35051700   -1.06526900
 C                0    4.89406600    0.75557400   -0.64615000
 N                0    5.93059100   -0.92183100   -1.59188500
 C                0    4.61153100   -1.22949700   -1.46887500
 N                0    3.95952000   -0.23104600   -0.90117300
 H                0    7.23698400    2.11471600   -2.94379500
 H                0    8.21957300    0.38612000   -0.59095700
 H                0    7.38444800    1.92196000   -0.43886700
 H                0    6.64186200   -1.52834800   -1.96981600
 H                0    4.59364700    1.68782200   -0.19262200
 H                0    4.15910800   -2.17312600   -1.74155000
 C                0   -2.94460900    0.12845400    1.62863000
 O                0   -2.08712700    1.05611200    2.27903600
 C                0   -2.26182900   -0.41311000    0.37868400
 O                0   -2.97155000   -1.53225000   -0.23223200
 C                0   -2.11937700    0.62908800   -0.73166000
 O                0   -0.88923700    0.43775400   -1.43786600
 C                0   -3.30922200    0.34869800   -1.65616700
 C                0   -3.71942500   -1.10535100   -1.35129700
 H                0   -3.52252000   -1.77741200   -2.18995900
 H                0   -4.13621600    1.02619800   -1.43317000
 H                0   -2.16889000    1.64662800   -0.34050500
 H                0   -1.30323600   -0.81884500    0.68951800
 H                0   -3.89556300    0.62662300    1.38139900
 H                0   -3.03943700    0.48249800   -2.70226200
 H                0   -3.16782400   -0.71404900    2.30005900
 P                0    0.44799600    1.25782900   -0.77084600
 C                0    0.02878000    3.87070500   -0.49669500
 O                0   -0.11166100    2.69559300   -1.30844100
 C                0   -1.29916300    4.61519400   -0.45390800
 O                0   -2.33531100    3.80295400    0.09993500
 C                0   -1.19357600    5.84586100    0.46645700
 O                0   -2.17847500    6.83633000    0.16662600
 C                0   -1.55623500    5.24067600    1.82362400
 C                0   -2.63897500    4.22231100    1.44526300
 O                0    1.37213100    0.40250900   -1.77458700
 O                0    2.20748700    2.20248500   -0.35855200
 O                0    0.32821500    0.95259800    0.71646700
 H                0   -0.68028200    4.74807400    2.25625000
 H                0   -0.18330000    6.28186400    0.45156200
 H                0    0.32494000    3.59648700    0.51630400
 H                0   -2.64506700    3.33391600    2.08198800
 H                0   -1.90838000    6.00728300    2.51800300
 H                0   -1.59644000    4.89292500   -1.47553800
 H                0    0.81010600    4.50906200   -0.92061300
 H                0    8.05254500    0.55745100   -3.12541800
 H                0    8.92554200    1.92935600   -2.42531500
 H                0   -2.10502100    7.04536700   -0.77356800
 H                0    4.34820000   -2.87191500    1.07986000
 H                0    4.09337400   -4.39273600    1.91882600
 H                0    2.38302400    2.91280000    0.59044600
 H                0   -1.22141500    1.07148500    1.81712200
 H                0    1.01557200   -0.47130600    4.85994800
 H                0    2.48494500    2.81674100   -1.05936600
 O                0   -0.38523000   -2.29606500   -1.25306800
 H                0   -1.27941600   -2.34892400   -0.86479800
 H                0   -0.30589800   -1.34934300   -1.50351800
 O                0    1.61827300   -4.59789800    1.64514000
 H                0    1.66608000   -5.47314400    1.23927900
 O                0    1.85259500   -1.35820700    0.78729200
 H                0    2.60298800   -1.01264800    0.26368900
 O                0    0.14596300   -4.92075600   -0.81645800
 H                0   -0.07931600   -4.50708200   -1.66172400
 H                0    0.88973600   -4.59829500    2.34656700
 H                0    1.27311700   -0.57794000    0.95312800
 H                0    1.02333500   -5.37665500   -0.97236600
 H                0    2.30711400    0.35950100   -1.45414400
 H                0   -3.63149600    4.69218600    1.45003800
 Mg               0    0.92783500   -3.14534100    0.22641700
 C                0   -5.63102900   -1.60977600    0.16341700
 C                0   -6.96976300   -1.71848400    0.40417300
 H                0   -4.87138700   -1.82113100    0.90490100
 H                0   -7.34150000   -2.02961200    1.37208900
 N                0   -5.17518200   -1.23663700   -1.05296800
 N                0   -7.41068800   -1.08838800   -1.89687700
 C                0   -7.83707200   -1.42708400   -0.69413900
 C                0   -6.06566200   -1.00054400   -2.14924600
 N                0   -9.19664600   -1.53680300   -0.52825200
 H                0   -9.57130400   -1.44578300    0.40319700
 H                0   -9.74522500   -1.13176100   -1.27331600
 O                0   -5.57769100   -0.72287700   -3.23923300
 H                0    2.21120300    6.48035000    1.87662000

