%nprocshared=8
%mem=6GB
# 6-311+g(2df,2p) m062x

SA Asp M1 IC

-1 1
 C               -1   -2.91970600    4.96858000    1.12303700
 C                0   -2.51456200    5.78931300   -0.11357200
 C                0   -1.09043700    5.43181700   -0.54133100
 O                0   -0.87383200    4.18522700   -0.76513900
 O                0   -0.21867800    6.33033300   -0.58500300
 H                0   -3.92678500    5.23596700    1.46266700
 H                0   -3.19409800    5.58380400   -0.95524900
 H                0   -2.56405700    6.86294700    0.08500300
 C               -1   -0.40655200    1.40904900    4.37411400
 C                0    1.08926400    1.27845200    4.01478900
 C                0    1.47561400    2.46700100    3.14240000
 O                0    1.51857800    3.59336900    3.69947800
 O                0    1.63196500    2.26535300    1.88313700
 H                0   -1.02179300    1.41314600    3.46979600
 H                0   -0.57891900    2.34790700    4.90772000
 H                0    1.68820700    1.30742800    4.93183500
 H                0    1.27969300    0.33486600    3.50004600
 C               -1   -4.03357500   -5.67197800    2.82141100
 C                0   -4.15422200   -4.14698800    2.75580200
 C                0   -4.51045600   -3.54228300    1.37240100
 O                0   -4.59429400   -2.27844200    1.35564200
 O                0   -4.67540800   -4.32160700    0.39195800
 H                0   -4.94428800   -6.14114000    2.43734300
 H                0   -4.92205700   -3.79320100    3.45592400
 H                0   -3.22626200   -3.66383600    3.08794500
 C               -1   -7.66474000    0.93729300   -2.53129400
 C                0   -6.94497200    1.90922400   -1.58374900
 C                0   -5.44967000    1.85001300   -1.69196900
 C                0   -4.57504100    0.80418400   -1.85072600
 N                0   -4.65590100    2.98966400   -1.58582700
 C                0   -3.35637900    2.65509000   -1.67455200
 N                0   -3.30164000    1.33876000   -1.84147700
 H                0   -7.35875100   -0.09094400   -2.31043700
 H                0   -7.27150700    2.93943500   -1.78020200
 H                0   -7.23530900    1.68622400   -0.54905400
 H                0   -4.98951300    3.92741500   -1.41995100
 H                0   -4.76167300   -0.27102600   -1.88329500
 H                0   -2.49533000    3.31344200   -1.56156300
 C                0    2.94640700   -0.93736900    1.59098800
 O                0    1.86810100   -1.64290800    2.19456100
 C                0    2.47685300   -0.35468100    0.26302100
 O                0    3.46478800    0.45730300   -0.43122400
 C                0    2.07758100   -1.43284800   -0.74114300
 O                0    1.03292200   -0.95937200   -1.61217100
 C                0    3.34837000   -1.63416500   -1.56666300
 C                0    4.11684800   -0.30305500   -1.43203700
 H                0    4.12569900    0.26684100   -2.36353800
 H                0    3.94347200   -2.45014800   -1.15053100
 H                0    1.74742300   -2.34812100   -0.25948900
 H                0    1.66814100    0.32708600    0.50387800
 H                0    3.78062100   -1.63975000    1.45466400
 H                0    3.12748300   -1.87487400   -2.60463700
 H                0    3.28841300   -0.11122300    2.23041900
 P                0   -0.44928000   -0.66618600   -0.98758900
 C                0   -1.99757500   -2.83617900   -0.74139400
 O                0   -1.46412600   -1.76601600   -1.56754800
 C                0   -1.15374200   -4.09159600   -0.91650900
 O                0    0.20290800   -3.83531400   -0.51075500
 C                0   -1.64620900   -5.26410400   -0.04942200
 O                0   -1.25223000   -6.52795100   -0.60784900
 C                0   -0.82520700   -5.06626700    1.22513500
 C                0    0.51773800   -4.58913800    0.67365200
 O                0   -0.84370900    0.64438400   -1.69259300
 O                0   -5.44425000   -1.92798300   -1.13545900
 O                0   -0.40554000   -0.65807800    0.53092000
 H                0   -1.28968800   -4.29484400    1.84544200
 H                0   -2.72793300   -5.21956000    0.11793300
 H                0   -2.02970400   -2.50954100    0.29997300
 H                0    1.06680700   -3.93606200    1.36002400
 H                0   -0.75441100   -5.98936300    1.80444400
 H                0   -1.13966200   -4.36842600   -1.97916000
 H                0   -3.02577300   -2.98943300   -1.07048000
 H                0   -7.42098500    1.15432200   -3.57571600
 H                0   -8.74841600    1.01137200   -2.40187700
 H                0   -3.86947100   -6.01351800    3.85092900
 H                0   -3.20763600   -6.03919000    2.20855500
 H                0   -1.82139400   -6.68272300   -1.37221400
 H                0   -2.89479800    3.89830700    0.91069100
 H                0   -2.21206400    5.14101400    1.93657900
 H                0   -5.15021900   -1.87429200   -0.17673600
 H                0    1.02899200   -1.33097200    1.80035900
 H                0   -0.73115500    0.57619700    5.00599800
 H                0   -5.41204000   -2.89562900   -1.21105900
 O                0    1.30846800    2.21465500   -1.21345200
 H                0    2.08550200    1.63775100   -1.09971000
 H                0    0.57043600    1.65640900   -1.57251300
 O                0    0.25773500    4.83705400    1.89104500
 H                0    0.55262300    5.70487300    1.58823100
 O                0   -0.93861100    1.98116500    0.95679000
 H                0   -1.57102400    1.99042400    0.22757000
 O                0    1.94935600    4.79155600   -0.44296700
 H                0    2.09608200    4.34602900   -1.29004800
 H                0    0.84121900    4.53540000    2.66870700
 H                0   -0.68293600    1.02577500    1.01599000
 H                0    1.25432100    5.48484500   -0.63583300
 H                0   -2.34006500    0.85674100   -1.87595300
 H                0    1.15183000   -5.44335200    0.39838300
 Mg               0    0.62916200    3.31890700    0.46015500
 C                0    6.03703800   -0.09717200    0.14171600
 C                0    7.34792800   -0.30346400    0.45581200
 H                0    5.33677900    0.39805300    0.80226700
 H                0    7.75540600    0.02840900    1.40217000
 N                0    5.54095500   -0.50205100   -1.05041400
 N                0    7.68557800   -1.33028600   -1.71756500
 C                0    8.14612300   -0.95123100   -0.53925100
 C                0    6.37406000   -1.10924200   -2.04551900
 N                0    9.47851900   -1.16815400   -0.29795100
 H                0    9.79771400   -1.20129800    0.65730600
 H                0    9.93635700   -1.78654200   -0.95179200
 O                0    5.86191700   -1.40430300   -3.11987400

