%nprocshared=8
%mem=1GB
# m062x/6-311+g(2df,2p) scrf=(iefpcm,read) geom=connectivity 

IC-185

-2 1
 C               -1    4.75075700   -2.59726600    2.89723600
 C                0    5.57015000   -3.03798300    1.68564500
 C                0    4.79655500   -3.94176100    0.71532300
 O                0    3.57462500   -4.19020800    1.02477200
 O                0    5.36813300   -4.32553900   -0.32606900
 H                0    3.84776500   -2.08053600    2.56581500
 H                0    5.87684300   -2.16969600    1.09022900
 H                0    6.49618700   -3.55393400    1.97395300
 C               -1    1.32288800   -0.61869400    4.22194900
 C                0    0.14985100   -1.50001400    3.76890600
 C                0    0.51811800   -2.54938600    2.72100000
 O                0    1.35375100   -2.17821000    1.81568700
 O                0   -0.01677500   -3.67965800    2.77344600
 H                0    1.72002000   -0.05223100    3.37790600
 H                0    2.13760800   -1.22084000    4.63995300
 H                0   -0.31735000   -2.01874000    4.61184800
 H                0   -0.61520600   -0.86390700    3.30506800
 C               -1    0.64390200    7.31389800    2.95101400
 C                0   -0.25610300    6.09452200    3.13478600
 C                0   -0.11977500    5.10623500    1.97642300
 O                0    0.17064100    5.49705000    0.84268000
 O                0   -0.36100200    3.87701400    2.33305200
 H                0    1.70060200    7.02769700    2.99323400
 H                0   -0.05252800    5.56766500    4.07148000
 H                0   -1.31070800    6.39994300    3.17260100
 C               -1    7.07730000    0.15158600   -3.51666200
 C                0    5.97946100   -0.82028400   -3.94158700
 C                0    4.87308100   -1.05762500   -2.89305300
 O                0    5.06590000   -0.58185400   -1.72912000
 O                0    3.88364700   -1.72321300   -3.28437500
 H                0    7.88021300    0.20893300   -4.26343800
 H                0    5.49037300   -0.49513500   -4.86751900
 H                0    6.40447100   -1.80828400   -4.16198900
 C               -1    6.89479300    3.46835100   -1.56471800
 C                0    6.05486100    2.50205800   -0.70761300
 C                0    4.60218800    2.84844600   -0.66847800
 C                0    3.47835600    2.13961900   -1.01534500
 N                0    4.11752800    4.06715100   -0.20634100
 C                0    2.75472000    4.03994900   -0.28145900
 N                0    2.34307200    2.88733200   -0.77046300
 H                0    6.85540800    4.49517600   -1.17868400
 H                0    6.12330600    1.47922700   -1.09067600
 H                0    6.46264100    2.48323500    0.31416400
 H                0    4.67547700    4.82510200    0.15292500
 H                0    3.44329000    1.13693700   -1.41377800
 H                0    2.10608500    4.84160500    0.04789200
 H                0    0.79668700    2.41329700   -0.04858400
 Mg               0    2.12501800   -3.08649400    0.07281400
 C                0   -4.10744400   -2.80199600   -0.44395000
 C                0   -2.74017400   -2.20285600   -0.76517900
 C                0   -2.43927600   -1.33574800    0.46634600
 O                0   -1.06824800   -1.09549100    0.67213400
 C                0   -3.08885900   -2.13921100    1.59983800
 O                0   -4.16364100   -2.90603700    0.97694300
 C                0   -3.72768600   -1.25896200    2.67574100
 O                0   -4.90563600   -0.63043300    2.17406800
 N                0   -5.25192600   -1.99690800   -0.96036600
 C                0   -6.45731600   -2.69568300   -1.32008200
 O                0   -6.50451600   -3.91619500   -1.21963200
 N                0   -7.51699100   -1.93771700   -1.76825300
 C                0   -7.39949800   -0.62854100   -1.88062100
 N                0   -8.49343400    0.04970000   -2.38386600
 C                0   -6.21944700    0.09436500   -1.54610100
 C                0   -5.17835900   -0.64467300   -1.07161300
 H                0   -6.11553500    1.16752400   -1.64826100
 H                0   -4.26484300   -0.15331000   -0.77326300
 H                0   -8.58353600    1.01930100   -2.11858500
 H                0   -4.27351600   -3.79484700   -0.85794700
 H                0   -9.34815300   -0.48903100   -2.35578800
 H                0   -2.70029500   -1.64948300   -1.70499400
 H                0   -2.95413300   -0.37662800    0.41101500
 H                0   -2.35429100   -2.83012500    2.03130500
 H                0   -3.95826700   -1.86535500    3.56810200
 H                0   -2.00446800   -3.01059900   -0.82014900
 H                0   -3.02163000   -0.46723800    2.93940200
 C                0   -1.19832700    1.58290000   -1.91450700
 O                0   -3.37507800    1.82476100   -0.73637400
 P                0   -0.62677600    0.69608700    0.65871600
 O                0   -1.61902000    1.06786600    1.73621400
 O                0   -0.07198200    2.33238900    0.42012300
 O                0   -4.09211500    3.80340200   -2.76672300
 O                0   -0.98000500    0.52997100   -0.99429800
 C                0   -2.68689000    2.03772100   -1.96272500
 C                0   -2.79546100    3.54352300   -2.20821400
 C                0   -2.65194000    4.08826400   -0.77916200
 C                0   -3.36807200    3.02256200    0.06837500
 H                0   -0.92879200    1.18893600   -2.90301600
 H                0   -0.54657600    2.43258800   -1.70941200
 H                0   -3.23202500    1.47380400   -2.72856900
 H                0   -2.00734600    3.91190800   -2.88271900
 H                0   -1.59729400    4.15847100   -0.50091800
 H                0   -3.09194000    5.08817300   -0.67612200
 H                0   -4.41383500    3.29046200    0.26761200
 H                0   -2.84960800    2.79914200    1.00330400
 O                0    3.24465700   -1.30990100   -0.01053100
 H                0    3.94206900   -1.05867500   -0.69382500
 H                0    2.80540000   -0.50009500    0.28391200
 O                0    0.55346500   -2.22578000   -1.02022500
 H                0    0.84046000   -1.49442900   -1.58189800
 H                0   -0.10902400   -1.81058300   -0.38743800
 O                0    0.93939300   -4.80602300    0.56354400
 H                0    1.71851300   -5.29664900    0.87005500
 H                0    0.49486700   -4.48581300    1.40500800
 O                0    3.03608200   -3.72000800   -1.70577600
 H                0    3.28802800   -2.96912000   -2.30588600
 H                0    3.89286400   -4.10702100   -1.40602100
 O                0    0.91005800    0.23435200    0.95280500
 H                0   -0.25440600    3.19316000    1.52440400
 H                0    0.98679100   -0.70202200    1.30496700
 H                0   -5.36920400   -1.34452300    1.70858100
 H                0   -4.26874700    4.74286800   -2.63016800
 H                0    6.67346100    1.15901800   -3.37795200
 H                0    7.50631400   -0.15912200   -2.56056100
 H                0    6.52747300    3.48911000   -2.59552700
 H                0    7.94581500    3.16056200   -1.58424700
 H                0    0.46677200    8.06777900    3.72652600
 H                0    0.46718300    7.76087400    1.96950500
 H                0    4.42870300   -3.45996100    3.48860800
 H                0    5.32949700   -1.92657900    3.54678300
 H                0    0.99293800    0.09580600    4.98446600

 1 2 1.0 6 1.0 118 1.0 119 1.0
 2 3 1.0 7 1.0 8 1.0
 3 4 2.0 5 2.0
 4 48 1.0
 5
 6
 7
 8
 9 10 1.0 14 1.0 15 1.0 120 1.0
 10 11 1.0 16 1.0 17 1.0
 11 12 2.0 13 2.0
 12 48 1.0
 13
 14
 15
 16
 17
 18 19 1.0 23 1.0 116 1.0 117 1.0
 19 20 1.0 24 1.0 25 1.0
 20 21 2.0 22 1.5
 21
 22
 23
 24
 25
 26 27 1.0 31 1.0 112 1.0 113 1.0
 27 28 1.0 32 1.0 33 1.0
 28 29 2.0 30 2.0
 29
 30
 31
 32
 33
 34 35 1.0 41 1.0 114 1.0 115 1.0
 35 36 1.0 42 1.0 43 1.0
 36 37 2.0 38 1.0
 37 40 1.5 45 1.0
 38 39 1.5 44 1.0
 39 40 2.0 46 1.0
 40
 41
 42
 43
 44
 45
 46
 47 80 1.0
 48 95 1.0 98 1.0 104 1.0
 49 50 1.0 54 1.0 57 1.0 68 1.0
 50 51 1.0 70 1.0 74 1.0
 51 52 1.0 53 1.0 71 1.0
 52
 53 54 1.0 55 1.0 72 1.0
 54
 55 56 1.0 73 1.0 75 1.0
 56 110 1.0
 57 58 1.0 64 1.5
 58 59 2.0 60 1.5
 59
 60 61 2.0
 61 62 1.0 63 1.5
 62 67 1.0 69 1.0
 63 64 2.0 65 1.0
 64 66 1.0
 65
 66
 67
 68
 69
 70
 71
 72
 73
 74
 75
 76 82 1.0 83 1.0 87 1.0 88 1.0
 77 83 1.0 86 1.0
 78 79 2.0 80 1.0 82 1.0 107 1.0
 79
 80
 81 84 1.0 111 1.0
 82
 83 84 1.0 89 1.0
 84 85 1.0 90 1.0
 85 86 1.0 91 1.0 92 1.0
 86 93 1.0 94 1.0
 87
 88
 89
 90
 91
 92
 93
 94
 95 96 1.0 97 1.0
 96
 97
 98 99 1.0 100 1.0
 99
 100
 101 102 1.0 103 1.0
 102
 103
 104 105 1.0 106 1.0
 105
 106
 107 109 1.0
 108
 109
 110
 111
 112
 113
 114
 115
 116
 117
 118
 119
 120

eps=4


