%nprocshared=8
%mem=6GB
# 6-311+g(2df,2p) m062x

SA Asp M1 IC

-1 1
 C               -1    0.83739000    4.10701900    3.63356800
 C                0    0.96467500    5.46636300    2.92963000
 C                0    1.12930700    5.40946500    1.40247800
 O                0    0.54147000    4.40800900    0.80953200
 O                0    1.75370100    6.29593100    0.81265400
 H                0    0.67200500    4.24370500    4.70823800
 H                0    0.06217800    6.06660100    3.11719800
 H                0    1.80651800    6.04239700    3.32404900
 C               -1    0.43804800   -1.30864800    3.37410500
 C                0    1.94397800   -1.02720900    3.38109100
 C                0    2.36215600    0.15453200    2.49183300
 O                0    3.57929500    0.43625000    2.39756600
 O                0    1.40228300    0.77237000    1.92190200
 H                0    0.08981700   -1.53081900    2.36285300
 H                0   -0.11821600   -0.43201400    3.71436800
 H                0    2.30084500   -0.80057300    4.39399200
 H                0    2.51821700   -1.90578000    3.06122000
 C               -1   -5.24422600   -2.65941500   -2.24677600
 C                0   -6.56443600   -2.29285800   -1.52980100
 C                0   -6.32624900   -1.39814500   -0.34261100
 O                0   -6.27048600   -2.06690400    0.83154300
 O                0   -6.19573900   -0.18618900   -0.39680200
 H                0   -4.68128700   -1.76117700   -2.50529600
 H                0   -7.21443300   -1.73498500   -2.21071200
 H                0   -7.08913200   -3.19523900   -1.20190000
 C               -1   -3.83215500    6.43633600   -1.35580000
 C                0   -2.39995600    5.95242800   -1.09424300
 C                0   -2.18871000    4.51942100   -1.47248000
 C                0   -3.04642100    3.56794100   -1.95726300
 N                0   -0.95222100    3.89802500   -1.36219500
 C                0   -1.06352800    2.62100700   -1.74843400
 N                0   -2.32025200    2.40326100   -2.13070900
 H                0   -4.55694400    5.85011000   -0.78134400
 H                0   -1.68645900    6.57535800   -1.64798300
 H                0   -2.13973100    6.07824000   -0.03530700
 H                0   -0.15011000    4.26083900   -0.79839300
 H                0   -4.09700100    3.62338900   -2.18800200
 H                0   -0.26757200    1.89350500   -1.71705600
 C                0    1.45771400   -2.10087800   -0.17232600
 O                0    0.10053800   -2.51186300   -0.16758800
 C                0    1.61710200   -0.75480800   -0.87998300
 O                0    2.96554800   -0.23660000   -0.73599800
 C                0    1.42085200   -0.79440300   -2.39218200
 O                0    1.08703100    0.47643600   -2.92724100
 C                0    2.80954700   -1.28172000   -2.86177000
 C                0    3.77123400   -0.70647300   -1.79708700
 H                0    4.36202200    0.12942100   -2.18231800
 H                0    2.86895000   -2.37217000   -2.87778900
 H                0    0.62703000   -1.49572600   -2.66766900
 H                0    0.96381900   -0.03271000   -0.39752700
 H                0    2.04105600   -2.88455200   -0.67035800
 H                0    3.04856600   -0.91868000   -3.85935300
 H                0    1.85553300   -1.99516200    0.84476700
 P                0   -2.85201200   -0.32491800   -0.36693200
 C                0   -3.02604200   -2.45255900    1.18989700
 O                0   -3.47506400   -1.78322800    0.01141500
 C                0   -3.44384100   -3.92295100    1.10895600
 O                0   -3.10663200   -4.51427000   -0.13559700
 C                0   -2.69780300   -4.75542100    2.16538000
 O                0   -3.35297600   -5.99565200    2.43385600
 C                0   -1.38886400   -5.06988100    1.43589400
 C                0   -1.81341700   -5.14643500   -0.04356000
 O                0   -3.14883900   -0.07691600   -1.82853300
 O                0   -3.71265300    0.71016600    0.56400300
 O                0   -1.42484400   -0.25198700    0.15263900
 H                0   -0.66618300   -4.26194900    1.57290300
 H                0   -2.53304300   -4.19114100    3.09698100
 H                0   -1.94209500   -2.36539200    1.27774000
 H                0   -1.10358000   -4.61478100   -0.68331100
 H                0   -0.95738500   -6.00133800    1.80984400
 H                0   -4.53512800   -3.98665300    1.21095000
 H                0   -3.47232000   -1.99179300    2.08467500
 H                0   -4.08909300    6.34561800   -2.41620100
 H                0   -3.94187800    7.48520600   -1.06780300
 H                0   -5.48838200   -3.20846500   -3.16248100
 H                0   -4.60571800   -3.28272400   -1.62083300
 H                0   -4.27885800   -5.80212400    2.62966000
 H                0   -0.00433900    3.53310800    3.23587600
 H                0    1.75047900    3.52158400    3.50557900
 H                0   -5.99239000   -1.41766100    1.49969300
 H                0   -0.45485100   -1.70719300   -0.05973200
 H                0    0.19345300   -2.15838900    4.02338600
 H                0   -4.64296500    0.67434100    0.26521700
 O                0    1.73684800    2.28158900   -0.97212200
 H                0    2.49222600    1.68055300   -0.86829300
 H                0    1.41867600    1.18426300   -2.31772400
 O                0    3.12478600    3.02670700    1.61403800
 H                0    3.53232400    3.49629700    0.84020600
 O                0   -0.80456700    2.03522600    1.24756100
 H                0   -1.52985100    2.60285800    0.96781100
 O                0    3.43465000    4.40487800   -0.67171900
 H                0    2.76943800    3.74317800   -0.98948000
 H                0    3.55205900    2.14995300    1.78610800
 H                0   -1.04529100    1.10637300    0.97648800
 H                0    2.89337000    5.15715000   -0.36412300
 H                0   -2.70157000    1.41721900   -2.23486900
 H                0   -1.92741400   -6.18017200   -0.39002000
 Mg               0    1.21643700    2.49716000    0.92916300
 C                0    4.92088100   -1.80872000    0.10262400
 C                0    5.82802000   -2.69715700    0.60220300
 H                0    4.33031400   -1.15158400    0.73354800
 H                0    5.99156600   -2.78061400    1.66911400
 N                0    4.73396900   -1.70149400   -1.23931100
 N                0    6.42996400   -3.33652300   -1.65735300
 C                0    6.54860900   -3.47956800   -0.35043500
 C                0    5.58229100   -2.38443300   -2.16643800
 N                0    7.45775400   -4.41457000    0.08972300
 H                0    7.32139200   -4.80503000    1.00933600
 H                0    7.77249200   -5.05697000   -0.62350900
 O                0    5.49569900   -2.10241900   -3.35715000

