%nprocshared=8
%mem=1GB
# m062x/6-311+g(2df,2p) scrf=(iefpcm,read) geom=connectivity 

IC-185

-2 1
 C               -1    4.83223600   -2.47505800    2.86525600
 C                0    5.57903700   -2.89774100    1.60073600
 C                0    4.77395400   -3.84504600    0.69897900
 O                0    3.57921700   -4.10975900    1.08225700
 O                0    5.29924100   -4.24622700   -0.36104200
 H                0    3.88816200   -1.99971300    2.59042000
 H                0    5.80138700   -2.02526700    0.97459600
 H                0    6.54546600   -3.36998500    1.82404900
 C               -1    1.50128300   -0.37421900    4.24769100
 C                0    0.32755200   -1.30730700    3.90890800
 C                0    0.70344800   -2.43030500    2.94837200
 O                0    1.39048800   -2.06794000    1.90999800
 O                0    0.36100100   -3.60142300    3.18972100
 H                0    1.87102300    0.12040600    3.34831700
 H                0    2.33435800   -0.92849500    4.69564900
 H                0   -0.09522400   -1.76246500    4.80966600
 H                0   -0.46475900   -0.73762800    3.40906400
 C               -1    0.88053200    7.49588800    2.61111000
 C                0   -0.23206600    6.45924300    2.77038100
 C                0   -0.10213600    5.34753400    1.73477500
 O                0    0.29006400    5.57664700    0.59321100
 O                0   -0.45771400    4.17294500    2.20165000
 H                0    1.85798900    7.05390500    2.83239200
 H                0   -0.24357000    6.01713500    3.77010400
 H                0   -1.21277000    6.92955500    2.61779900
 C               -1    6.89078800   -0.08910500   -3.78129700
 C                0    5.79010100   -1.09435600   -4.10789800
 C                0    4.68295900   -1.22694000   -3.04037200
 O                0    4.87419500   -0.63354500   -1.92991200
 O                0    3.69950200   -1.93254300   -3.36357100
 H                0    7.68704100   -0.09765500   -4.53759700
 H                0    5.30146300   -0.85998800   -5.06128300
 H                0    6.21304000   -2.09987500   -4.23033900
 C               -1    6.85097300    3.32327800   -1.99289500
 C                0    6.08017400    2.38714100   -1.04386000
 C                0    4.65250600    2.78212700   -0.85708900
 C                0    3.47850900    2.09837000   -1.05103900
 N                0    4.25959500    4.03321700   -0.39454100
 C                0    2.89932000    4.05407300   -0.31973900
 N                0    2.40320600    2.89704200   -0.71257200
 H                0    6.88700500    4.35304400   -1.61381500
 H                0    6.07246900    1.36048500   -1.42273400
 H                0    6.59119600    2.36097900   -0.07003900
 H                0    4.87742200    4.78768200   -0.14215400
 H                0    3.37128600    1.08633100   -1.41128900
 H                0    2.31348500    4.89575900    0.02314500
 H                0    0.94441000    2.50530700   -0.06986700
 Mg               0    2.00255200   -3.11533900    0.14000600
 C                0   -4.44138100   -2.83889100   -0.01168900
 C                0   -2.97024600   -2.57077200   -0.34131900
 C                0   -2.52148700   -1.53397100    0.71898900
 O                0   -1.17291700   -1.50512000    0.98833500
 C                0   -3.38007200   -1.96708800    1.92267500
 O                0   -4.60384500   -2.54612400    1.37530700
 C                0   -3.80601700   -0.83385600    2.85710700
 O                0   -4.84102300   -0.04245900    2.27169400
 N                0   -5.38732000   -2.01818300   -0.82355000
 C                0   -6.41730500   -2.67609000   -1.57674500
 O                0   -6.55213900   -3.89324300   -1.50094500
 N                0   -7.22367600   -1.88349100   -2.36517400
 C                0   -7.02529500   -0.58031900   -2.42320900
 N                0   -7.83105300    0.12874000   -3.29310900
 C                0   -6.03121800    0.10755000   -1.67088600
 C                0   -5.24532800   -0.66954300   -0.87129900
 H                0   -5.86328800    1.17630000   -1.73036800
 H                0   -4.48858400   -0.22328200   -0.24065600
 H                0   -7.96036700    1.11001600   -3.09844300
 H                0   -4.76182000   -3.86263400   -0.19817300
 H                0   -8.65473200   -0.37536600   -3.58978800
 H                0   -2.81575900   -2.24047200   -1.37101100
 H                0   -2.86628900   -0.53740600    0.41930700
 H                0   -2.82251700   -2.73599200    2.47483100
 H                0   -4.14558600   -1.25015600    3.82203800
 H                0   -2.38655200   -3.48458800   -0.19094800
 H                0   -2.94613000   -0.18146100    3.02224000
 C                0   -1.25812400    1.36382600   -1.76449100
 O                0   -3.32266200    1.65914200   -0.42848800
 P                0   -0.43894200    0.86607300    0.77102400
 O                0   -1.42905700    1.09117200    1.86063500
 O                0    0.06995900    2.41049700    0.43033000
 O                0   -4.30417000    3.36189200   -2.61413200
 O                0   -0.90158500    0.42773800   -0.75513000
 C                0   -2.76197000    1.75786900   -1.72920900
 C                0   -2.96059100    3.22237000   -2.12869400
 C                0   -2.75298400    3.92872900   -0.77989000
 C                0   -3.39145100    2.94220800    0.21148600
 H                0   -1.04825000    0.87058500   -2.72011100
 H                0   -0.62695300    2.25377700   -1.70473600
 H                0   -3.34161600    1.09180400   -2.37686900
 H                0   -2.24195900    3.54890700   -2.89564100
 H                0   -1.68499500    4.04952000   -0.57776700
 H                0   -3.21268000    4.92465800   -0.75922900
 H                0   -4.44863800    3.17479800    0.39341100
 H                0   -2.86015900    2.87778300    1.16315900
 O                0    3.14607600   -1.35304400   -0.08905300
 H                0    3.79311400   -1.12069600   -0.82082400
 H                0    2.72540000   -0.53774100    0.21528600
 O                0    0.30513100   -2.39682300   -0.75908700
 H                0    0.43892400   -1.61559400   -1.30923800
 H                0   -0.38757600   -2.04787900    0.00069800
 O                0    1.00756200   -4.85815700    0.92266700
 H                0    1.86760700   -5.24612800    1.15453300
 H                0    0.67384600   -4.48472400    1.78928500
 O                0    2.87136500   -3.83768400   -1.63432300
 H                0    3.07701100   -3.11663800   -2.28247200
 H                0    3.75653400   -4.16726000   -1.34596900
 O                0    0.97350500    0.19928600    1.01911300
 H                0   -0.29156200    3.44002400    1.50482000
 H                0    1.02817500   -0.77661100    1.42532800
 H                0   -5.43639200   -0.70161700    1.88143000
 H                0   -4.52999900    4.29869600   -2.55180100
 H                0    6.48816500    0.92748900   -3.72788700
 H                0    7.33020500   -0.31529400   -2.80623300
 H                0    6.37639900    3.34953200   -2.97880400
 H                0    7.88333900    2.98190800   -2.12277300
 H                0    0.73432300    8.34718500    3.28462500
 H                0    0.90682900    7.85666200    1.57991100
 H                0    4.58605200   -3.34239200    3.48553400
 H                0    5.42755500   -1.77403100    3.46640100
 H                0    1.18452400    0.40108800    4.95506700

 1 2 1.0 6 1.0 118 1.0 119 1.0
 2 3 1.0 7 1.0 8 1.0
 3 4 2.0 5 2.0
 4 48 1.0
 5
 6
 7
 8
 9 10 1.0 14 1.0 15 1.0 120 1.0
 10 11 1.0 16 1.0 17 1.0
 11 12 1.5 13 2.0
 12
 13
 14
 15
 16
 17
 18 19 1.0 23 1.0 116 1.0 117 1.0
 19 20 1.0 24 1.0 25 1.0
 20 21 2.0 22 1.5
 21
 22
 23
 24
 25
 26 27 1.0 31 1.0 112 1.0 113 1.0
 27 28 1.0 32 1.0 33 1.0
 28 29 2.0 30 2.0
 29
 30
 31
 32
 33
 34 35 1.0 41 1.0 114 1.0 115 1.0
 35 36 1.0 42 1.0 43 1.0
 36 37 2.0 38 1.0
 37 40 1.5 45 1.0
 38 39 1.5 44 1.0
 39 40 2.0 46 1.0
 40
 41
 42
 43
 44
 45
 46
 47 80 1.0
 48 95 1.0 98 1.0 104 1.0
 49 50 1.0 54 1.0 57 1.0 68 1.0
 50 51 1.0 70 1.0 74 1.0
 51 52 1.0 53 1.0 71 1.0
 52
 53 54 1.0 55 1.0 72 1.0
 54
 55 56 1.0 73 1.0 75 1.0
 56 110 1.0
 57 58 1.0 64 1.5
 58 59 2.0 60 1.5
 59
 60 61 2.0
 61 62 1.5 63 1.5
 62 67 1.0 69 1.0
 63 64 2.0 65 1.0
 64 66 1.0
 65
 66
 67
 68
 69
 70
 71
 72
 73
 74
 75
 76 82 1.0 83 1.0 87 1.0 88 1.0
 77 83 1.0 86 1.0
 78 79 2.0 80 1.0 82 1.0 107 1.5
 79
 80
 81 84 1.0 111 1.0
 82
 83 84 1.0 89 1.0
 84 85 1.0 90 1.0
 85 86 1.0 91 1.0 92 1.0
 86 93 1.0 94 1.0
 87
 88
 89
 90
 91
 92
 93
 94
 95 96 1.0 97 1.0
 96
 97
 98 99 1.0
 99
 100
 101 102 1.0 103 1.0
 102
 103
 104 105 1.0 106 1.0
 105
 106
 107
 108
 109
 110
 111
 112
 113
 114
 115
 116
 117
 118
 119
 120

eps=4


