%chk=Model1_TS1_tsf.chk
%nprocshared=8
%mem=32GB
# opt=(calcfc,ts,noeigen) b3lyp/6-31g(d,p) empiricaldispersion=gd3

M1 TS1 opt4

-1 1
 C               -1    5.65871700   -2.66066000    1.12930000
 C                0    5.90400600   -3.01791100   -0.34609000
 C                0    4.60205900   -3.42217300   -1.05314700
 O                0    3.66019600   -2.54308700   -1.01519800
 O                0    4.51916900   -4.54406400   -1.58677200
 H                0    6.58460600   -2.33138200    1.61593800
 H                0    6.32471600   -2.14672700   -0.87293500
 H                0    6.62368100   -3.83561400   -0.44454700
 C               -1    1.48599600   -0.97607600    4.17994100
 C                0    0.34658900   -1.93641300    3.79250200
 C                0    0.89279900   -3.02482000    2.86868200
 O                0    1.71211700   -3.83795400    3.37126000
 O                0    0.54223900   -2.99808000    1.63997800
 H                0    1.89504700   -0.48222000    3.29572400
 H                0    2.29363600   -1.53620100    4.65958000
 H                0   -0.04848500   -2.41579800    4.69607200
 H                0   -0.46255400   -1.38806200    3.30557600
 C               -1    2.24952700    6.83502800    1.86068800
 C                0    2.06457600    5.53232800    1.11443000
 O                0    1.46313100    4.61444200    1.86550400
 O                0    2.42816700    5.35845900   -0.04208800
 H                0    2.70946800    7.57575600    1.20714400
 H                0    2.87892800    6.66592000    2.73958100
 C               -1    7.82545600    3.30954300   -2.30348800
 C                0    7.14164100    3.00283900   -0.95683200
 C                0    5.92484700    2.14334500   -1.08935200
 C                0    4.58481100    2.43067200   -1.02539700
 N                0    5.98046800    0.78716100   -1.38724100
 C                0    4.71203300    0.31070500   -1.49128200
 N                0    3.84945500    1.29018500   -1.27919700
 H                0    7.13379300    3.82454200   -2.97642900
 H                0    7.86323300    2.52927300   -0.27716000
 H                0    6.83848500    3.93926900   -0.47748400
 H                0    6.81507500    0.22544000   -1.46098400
 H                0    4.10658300    3.37403000   -0.79941100
 H                0    4.44887200   -0.73211100   -1.65163500
 C                0   -2.74761600   -0.79593500    1.65838100
 O                0   -1.97877900    0.29703100    2.12596500
 C                0   -2.13104500   -1.51378500    0.45497200
 O                0   -2.97065600   -2.66799100    0.12311200
 C                0   -2.02988600   -0.65926300   -0.83451900
 O                0   -0.71423400   -0.35992300   -1.24266800
 C                0   -2.75221800   -1.51017900   -1.89795900
 C                0   -3.63546100   -2.45733000   -1.09601600
 H                0   -3.78886100   -3.42372700   -1.58246900
 H                0   -3.29153500   -0.92136200   -2.63552800
 H                0   -2.54319400    0.29399300   -0.70353000
 H                0   -1.15334700   -1.90761200    0.74465900
 H                0   -3.74077000   -0.40884600    1.39591600
 H                0   -1.99968700   -2.11064800   -2.41683700
 H                0   -2.88518100   -1.53819200    2.46108600
 P                0    0.44951600    1.39952100   -0.40031000
 C                0   -1.62186300    2.87765300    0.12259900
 O                0   -0.87296700    2.18869900   -0.89554800
 C                0   -2.96686200    3.31043300   -0.45190500
 O                0   -3.66383600    2.21005100   -1.03529600
 C                0   -3.87395400    3.84781200    0.67736300
 O                0   -4.82343400    4.80542400    0.20652700
 C                0   -4.65086700    2.58847500    1.06755200
 C                0   -4.86408600    1.93429500   -0.29769400
 O                0    1.30498700    0.97233900   -1.64403600
 O                0    1.36727900    2.74672800    0.06921500
 O                0    0.41136000    0.68079600    0.92749800
 H                0   -4.02926900    1.95422800    1.70720500
 H                0   -3.28713500    4.25924800    1.51230500
 H                0   -1.78189000    2.21454000    0.97648800
 H                0   -4.99415600    0.85054300   -0.25551300
 H                0   -5.57940600    2.83618500    1.58762100
 H                0   -2.80412100    4.06893400   -1.23258900
 H                0   -1.06317700    3.76208000    0.45914300
 H                0    8.14923400    2.38935200   -2.80158600
 H                0    8.70678500    3.94303500   -2.15941900
 H                0   -4.33871400    5.49115400   -0.27076500
 H                0    4.91331500   -1.86668100    1.21168300
 H                0    5.25793600   -3.52328100    1.66405100
 H                0    1.38530300    3.76996900    1.32805000
 H                0   -1.07310200    0.27219900    1.74488500
 H                0    1.13030300   -0.20332100    4.87068500
 H                0    1.55164300    3.37554500   -0.64743800
 O                0    0.40093400   -2.60872500   -1.24906200
 H                0   -0.34614300   -3.09924000   -0.87672800
 H                0   -0.15967700   -1.25734400   -1.28260600
 O                0    3.01319000   -4.39416900    1.23707600
 H                0    2.75200300   -5.22759700    0.82304400
 O                0    2.40512000   -1.11985000    0.89605800
 H                0    3.02145200   -0.67222100    0.30287200
 O                0    1.84323600   -4.86950600   -1.28956700
 H                0    1.31143200   -4.23719600   -1.81443800
 H                0    2.53612600   -4.33828500    2.13311100
 H                0    1.63130600   -0.51665100    1.00756000
 H                0    2.77322200   -4.81016300   -1.62858900
 H                0    2.31711900    1.13977600   -1.49168200
 H                0   -5.72745300    2.37138000   -0.81661800
 Mg               0    1.89897300   -2.99664600    0.04471900
 C                0   -5.54628500   -1.90524500    0.40556100
 C                0   -6.77453300   -1.36583100    0.65797100
 H                0   -4.92661000   -2.35605200    1.16955100
 H                0   -7.19936000   -1.37354500    1.65362500
 N                0   -5.01530600   -1.89243500   -0.83902600
 N                0   -6.99388400   -0.85600500   -1.69719600
 C                0   -7.44363100   -0.77924900   -0.46100200
 C                0   -5.83009400   -1.53792400   -1.96539500
 N                0   -8.64039900   -0.12553700   -0.27037600
 H                0   -8.80560000    0.28704400    0.63522300
 H                0   -8.93750000    0.42647300   -1.06319700
 O                0   -5.44827800   -1.82985600   -3.09052500
 H                0    1.28141000    7.19541000    2.22036600

