%chk=Model1_TS1_tsf.chk
%nprocshared=8
%mem=32GB
# opt=(calcfc,ts,noeigen) b3lyp/6-31g(d,p) empiricaldispersion=gd3

M1 TS1 opt4

-1 1
 C               -1    4.91969200   -3.96108400    0.99875000
 C                0    4.78204300   -4.73701100   -0.32325700
 C                0    3.31719600   -4.78477500   -0.76090800
 O                0    2.75078100   -3.65113000   -0.95618600
 O                0    2.74253300   -5.89945500   -0.83520900
 H                0    5.96582900   -3.91888300    1.32226700
 H                0    5.37042700   -4.24033400   -1.10724800
 H                0    5.15356200   -5.76087900   -0.22653300
 C               -1    1.36400700   -1.25758500    4.09776500
 C                0   -0.10783300   -1.62236700    3.81193800
 C                0   -0.10395600   -2.85934500    2.92231400
 O                0    0.15928600   -3.96267100    3.46193700
 O                0   -0.24844100   -2.67645600    1.66083800
 H                0    1.89988900   -1.06408900    3.16459500
 H                0    1.86026200   -2.08776400    4.60936600
 H                0   -0.61915000   -1.85759300    4.75158800
 H                0   -0.61722400   -0.78707500    3.32619500
 C               -1    2.35622100    6.51437700    2.01931500
 C                0    3.49662400    6.03531000    1.11169800
 C                0    3.14048900    4.76758400    0.33070000
 O                0    2.70052200    3.79153800    1.06536800
 O                0    3.27855400    4.73133100   -0.90379600
 H                0    1.47934200    6.80425300    1.43020000
 H                0    3.78716200    6.80570000    0.39196500
 H                0    4.37493700    5.80380400    1.72835200
 C               -1    7.53405800    0.92666400   -1.57552600
 C                0    6.20051700    0.26352100   -1.47698100
 C                0    4.97458500    0.71663200   -1.06342600
 N                0    5.98057800   -1.05872000   -1.84940400
 C                0    4.66542100   -1.34591000   -1.65421200
 N                0    4.03247500   -0.28889600   -1.17853900
 H                0    8.29064200    0.42546700   -0.95865700
 H                0    7.45245500    1.95934900   -1.22912600
 H                0    6.67862500   -1.70573000   -2.18232700
 H                0    4.69203300    1.69454800   -0.70392800
 H                0    4.20169000   -2.31098700   -1.81304700
 C                0   -2.75841500    0.08784200    1.66751800
 O                0   -1.88143600    1.05359400    2.23019500
 C                0   -2.12979000   -0.51109900    0.41496000
 O                0   -2.86078700   -1.66068900   -0.10948000
 C                0   -2.04022300    0.47681200   -0.74858500
 O                0   -0.83608200    0.26528400   -1.49179100
 C                0   -3.26194800    0.14436100   -1.61350000
 C                0   -3.66042100   -1.28984600   -1.21230400
 H                0   -3.50596300   -2.00664200   -2.02225600
 H                0   -4.08107800    0.83517400   -1.40330600
 H                0   -2.08607900    1.51107800   -0.40447100
 H                0   -1.15588700   -0.89842300    0.70061700
 H                0   -3.72434700    0.56618700    1.43992600
 H                0   -3.02656900    0.21701900   -2.67392200
 H                0   -2.94299300   -0.72173600    2.38962000
 P                0    0.51955900    1.13129000   -0.91370200
 C                0    0.04194200    3.74998300   -0.74164800
 O                0   -0.09076500    2.53433600   -1.49137900
 C                0   -1.30293600    4.46760900   -0.73711800
 O                0   -2.31308600    3.67788900   -0.10886600
 C                0   -1.22977300    5.76967300    0.07863600
 O                0   -2.26733800    6.68777300   -0.26979600
 C                0   -1.53037300    5.25963200    1.48882900
 C                0   -2.57311800    4.16417200    1.22398200
 O                0    1.40705000    0.24908600   -1.92606400
 O                0    2.24938200    2.10852200   -0.60213500
 O                0    0.45518900    0.87686000    0.58828000
 H                0   -0.62110400    4.84732600    1.93602100
 H                0   -0.24263300    6.24773700   -0.00117500
 H                0    0.34733500    3.53442300    0.28331700
 H                0   -2.50206000    3.31897800    1.91387300
 H                0   -1.90244400    6.06294400    2.12911600
 H                0   -1.61667100    4.65117900   -1.77476600
 H                0    0.81192600    4.37804800   -1.20232900
 H                0    2.65699100    7.38187400    2.61699200
 H                0    2.05450700    5.70905100    2.69367200
 H                0   -2.23279000    6.81859200   -1.22621600
 H                0    4.54587300   -2.94150100    0.87894000
 H                0    4.32006800   -4.42910300    1.78191500
 H                0    2.43477400    2.85702100    0.31140000
 H                0   -1.03476500    1.04597000    1.73302500
 H                0    1.43248900   -0.36346900    4.72644000
 H                0    2.50032500    2.69984900   -1.33296400
 O                0   -0.31406200   -2.43990400   -1.22313900
 H                0   -1.18690800   -2.48812700   -0.78865400
 H                0   -0.26019100   -1.50001100   -1.50910000
 O                0    1.84188700   -4.62329200    1.65465500
 H                0    1.85269000   -5.51475000    1.28308200
 O                0    2.01478600   -1.40907300    0.67001000
 H                0    2.73472300   -1.06086100    0.10994100
 O                0    0.23935500   -5.04076300   -0.71023300
 H                0   -0.03663600   -4.65806500   -1.55512600
 H                0    1.15611700   -4.58557500    2.39782800
 H                0    1.42565100   -0.63568900    0.83800100
 H                0    1.10579800   -5.50372000   -0.90189500
 H                0    2.35891600    0.22261800   -1.65173300
 H                0   -3.58884000    4.57981200    1.24813000
 Mg               0    1.07701900   -3.22562800    0.21659900
 C                0   -5.50015600   -1.70385500    0.41553000
 C                0   -6.82638700   -1.79117000    0.72488400
 H                0   -4.70702000   -1.88077900    1.13039100
 H                0   -7.15282700   -2.04908100    1.72427100
 N                0   -5.10118500   -1.39740400   -0.83872900
 N                0   -7.37369600   -1.27825900   -1.58236800
 C                0   -7.74376400   -1.55109900   -0.34475400
 C                0   -6.04183800   -1.21336500   -1.90253200
 N                0   -9.09448400   -1.64285500   -0.10959000
 H                0   -9.42451500   -1.50142800    0.83241600
 H                0   -9.67568900   -1.27262900   -0.84801000
 O                0   -5.60511200   -0.99712100   -3.02759800
 H                0    7.90700300    0.94880400   -2.60722200

