%nprocshared=8
%mem=30GB
# freq b3lyp/6-31g(d,p) empiricaldispersion=gd3

M1 TS2 fopt2

-1 1
 C               -1    5.54353800   -2.35490100    1.05459400
 C                0    5.63684600   -3.36335100   -0.10490600
 C                0    4.24445700   -3.83563300   -0.52969400
 O                0    3.41177700   -2.91239000   -0.84453700
 O                0    3.97186800   -5.06089500   -0.49132800
 H                0    6.54180000   -2.02891800    1.36822500
 H                0    6.12301100   -2.88737300   -0.96820200
 H                0    6.23370000   -4.23750300    0.17000700
 C               -1    1.48676700   -0.54241800    4.18726600
 C                0    0.15647700   -1.26718500    3.89887800
 C                0    0.48169400   -2.50360400    3.06963900
 O                0    1.00039200   -3.48087600    3.66578000
 O                0    0.31521200   -2.42210600    1.80119700
 H                0    1.97386900   -0.25300600    3.25168800
 H                0    2.16310200   -1.20638700    4.73389800
 H                0   -0.30664800   -1.57993100    4.84111700
 H                0   -0.52528300   -0.60108400    3.36595900
 C               -1    1.31294300    5.90661600    2.62446900
 C                0    1.59222200    5.16594400    1.32860500
 O                0    1.76497700    3.87195000    1.52767700
 O                0    1.60603000    5.72615400    0.23844200
 H                0    1.98101100    5.56380500    3.41839300
 H                0    0.28802500    5.68470100    2.94156500
 C               -1    7.47874800    2.00526400   -2.24289700
 C                0    6.21799900    1.25438900   -1.96193900
 C                0    5.02344800    1.60916300   -1.38562100
 N                0    6.05497500   -0.08345100   -2.30236600
 C                0    4.80611500   -0.47361000   -1.92945200
 N                0    4.15991300    0.53073700   -1.36825200
 H                0    7.70489600    2.04016600   -3.31598100
 H                0    8.34328700    1.56016900   -1.73469500
 H                0    6.75157100   -0.67673500   -2.72608800
 H                0    4.71841200    2.56448000   -0.98415000
 H                0    4.41163900   -1.47752000   -2.01860500
 C                0   -2.68218000   -0.16792500    1.59837400
 O                0   -1.99173900    0.96165300    2.11473300
 C                0   -1.92898700   -0.72377900    0.39654500
 O                0   -2.45084300   -2.00594600   -0.06936800
 C                0   -1.96972100    0.20410200   -0.82006400
 O                0   -0.73038600    0.18237800   -1.52108000
 C                0   -3.09128600   -0.37960100   -1.69065400
 C                0   -3.25016400   -1.83807900   -1.22071400
 H                0   -2.93792400   -2.55715700   -1.98184300
 H                0   -4.02283600    0.16903900   -1.53439600
 H                0   -2.21656700    1.22641800   -0.53168000
 H                0   -0.91272400   -0.92737000    0.72152500
 H                0   -3.70584300    0.13208700    1.32182100
 H                0   -2.84043800   -0.32045600   -2.74833700
 H                0   -2.75509900   -0.95303100    2.36643100
 P                0    0.44777500    1.33808900   -0.96181700
 C                0   -0.63437400    3.73930100   -0.77463200
 O                0   -0.49922200    2.55301900   -1.56402600
 C                0   -2.06250000    4.26108800   -0.85812500
 O                0   -3.00913000    3.30157700   -0.38413900
 C                0   -2.22345000    5.49746100    0.04829700
 O                0   -3.31550200    6.32871300   -0.35224000
 C                0   -2.61528100    4.84891500    1.37734300
 C                0   -3.47844600    3.66296100    0.92823600
 O                0    1.44895500    0.57585700   -1.98524700
 O                0    1.82501700    2.56208200   -0.67340400
 O                0    0.37856200    1.06154100    0.54632100
 H                0   -1.72091900    4.49884300    1.90199700
 H                0   -1.29060000    6.07589400    0.11696100
 H                0   -0.39670800    3.51853100    0.26835500
 H                0   -3.36674000    2.79481900    1.58289600
 H                0   -3.14753900    5.55348500    2.02090500
 H                0   -2.30909600    4.48736200   -1.90560100
 H                0    0.05956200    4.51157700   -1.11943300
 H                0   -3.17897400    6.55861800   -1.28036000
 H                0    4.96783100   -1.47812800    0.75524200
 H                0    5.02743600   -2.80237100    1.90652600
 H                0    1.82397600    3.35347100    0.63904200
 H                0   -1.13311200    1.05121700    1.64321300
 H                0    1.32120500    0.36258200    4.78142700
 H                0    1.92794100    3.14731600   -1.43672600
 O                0    0.22990900   -2.35540700   -1.10083800
 H                0   -0.62214000   -2.56097000   -0.67230800
 H                0    0.09565800   -1.42955400   -1.42236500
 O                0    2.78960000   -3.84831300    1.88169000
 H                0    3.01961500   -4.73603800    1.57866000
 O                0    2.33050500   -0.79115800    0.72081000
 H                0    2.96520000   -0.38243900    0.10627500
 O                0    1.30421400   -4.78276600   -0.41876700
 H                0    0.97441700   -4.51380500   -1.28817500
 H                0    2.11282200   -3.91721500    2.63211800
 H                0    1.60179400   -0.12390600    0.82467300
 H                0    2.25108900   -5.05617600   -0.57701300
 H                0    2.38935200    0.76099400   -1.74969700
 H                0   -4.53529100    3.95214300    0.85601500
 Mg               0    1.72562600   -2.76052200    0.37538900
 C                0   -5.06536600   -2.46447800    0.36563300
 C                0   -6.37034200   -2.75987800    0.63600500
 H                0   -4.28750200   -2.45117100    1.11815600
 H                0   -6.69396600   -3.00183700    1.64030600
 N                0   -4.66658600   -2.18066600   -0.89331400
 N                0   -6.88976000   -2.50768100   -1.71988600
 C                0   -7.26432200   -2.75559400   -0.47869100
 C                0   -5.57460600   -2.23329700   -1.99895700
 N                0   -8.59038000   -3.06405700   -0.28259500
 H                0   -8.98155100   -2.90522000    0.63306800
 H                0   -9.18948400   -2.84487300   -1.06585800
 O                0   -5.13175700   -2.01927900   -3.12183000
 H                0    7.38044500    3.03455300   -1.89007600
 H                0    1.41414400    6.98113600    2.46860700

