%nprocshared=8
%mem=6GB
# 6-311+g(2df,2p) m062x

SA Asp M1 IC

-1 1
 C               -1    4.82203900   -3.51607900    1.32230800
 C                0    4.78138400   -4.45328100    0.10117500
 C                0    3.34154600   -4.65123200   -0.37955200
 O                0    2.69639100   -3.58005100   -0.66290100
 O                0    2.86152100   -5.80980700   -0.41027700
 H                0    5.84813000   -3.38232100    1.68430600
 H                0    5.36306100   -4.02955800   -0.73092600
 H                0    5.21201000   -5.43085800    0.33399400
 C               -1    0.99704300   -0.93926400    4.20073300
 C                0   -0.42187700   -1.46706300    3.90752100
 C                0   -0.27545000   -2.75545700    3.10851200
 O                0    0.09075300   -3.78466800    3.73081300
 O                0   -0.42039100   -2.68128700    1.83683300
 H                0    1.53227700   -0.73954200    3.26866400
 H                0    1.56319900   -1.68428600    4.76793400
 H                0   -0.93676900   -1.68696200    4.84909000
 H                0   -0.98854000   -0.71743400    3.35196000
 C               -1    1.97976800    6.88789300    2.33590400
 C                0    2.30626300    5.41181100    2.55270300
 C                0    2.32111800    4.61054200    1.25566100
 O                0    2.25570100    3.31138000    1.47797100
 O                0    2.38895600    5.14064400    0.15162800
 H                0    2.65357200    7.32195200    1.59310100
 H                0    3.29545500    5.29231000    3.01475700
 H                0    1.59927100    4.93310000    3.23837600
 C               -1    8.06989800    1.76598600   -2.37543700
 C                0    7.76522800    0.43226600   -1.68154400
 C                0    6.31267300    0.06725600   -1.72864700
 C                0    5.17699700    0.78039100   -2.02921100
 N                0    5.85207000   -1.20704300   -1.43756000
 C                0    4.49503300   -1.21919700   -1.57631900
 N                0    4.06211600   -0.02550600   -1.93563100
 H                0    7.52958800    2.58807200   -1.89594900
 H                0    8.35397100   -0.36631000   -2.15470300
 H                0    8.10673100    0.47895300   -0.63727700
 H                0    6.41177800   -1.99013600   -1.13638300
 H                0    5.09760800    1.82180400   -2.30337100
 H                0    3.87932100   -2.09735900   -1.39646600
 C                0   -2.90842600    0.14788800    1.53268400
 O                0   -2.01161700    1.10743800    2.07558200
 C                0   -2.24688900   -0.56005700    0.35748900
 O                0   -2.98670700   -1.73110100   -0.10504200
 C                0   -2.08880000    0.33934800   -0.87128900
 O                0   -0.86481300    0.07944100   -1.54902600
 C                0   -3.28580800   -0.03841300   -1.75642200
 C                0   -3.71913300   -1.43655300   -1.27574900
 H                0   -3.52953900   -2.21147300   -2.02228900
 H                0   -4.10297100    0.67375100   -1.62095600
 H                0   -2.14749800    1.39354800   -0.59722100
 H                0   -1.29388400   -0.94276800    0.71055100
 H                0   -3.83709900    0.65288500    1.22127500
 H                0   -3.01039900   -0.03937000   -2.80960300
 H                0   -3.16771100   -0.59869700    2.29840600
 P                0    0.49975600    1.02767900   -1.00215500
 C                0   -0.14494400    3.58884800   -0.86719700
 O                0   -0.23579900    2.37585100   -1.62028600
 C                0   -1.46065400    4.35214100   -0.94160300
 O                0   -2.54345600    3.59738500   -0.39513700
 C                0   -1.37165100    5.63521800   -0.09250100
 O                0   -2.32720200    6.62070000   -0.49258700
 C                0   -1.80544800    5.11897300    1.28059700
 C                0   -2.87477100    4.07740800    0.92252800
 O                0    1.34715500    0.09139600   -2.01019500
 O                0    2.03785200    1.99274500   -0.69943600
 O                0    0.35696800    0.77921700    0.51159300
 H                0   -0.95714900    4.65119500    1.78970400
 H                0   -0.35340800    6.05026200   -0.08681900
 H                0    0.07113000    3.36214300    0.17865800
 H                0   -2.87864800    3.22421400    1.60594600
 H                0   -2.18506600    5.93025500    1.90651100
 H                0   -1.69977300    4.57122200   -1.99227900
 H                0    0.66689100    4.21652100   -1.24642500
 H                0    7.76874900    1.73531700   -3.42685500
 H                0    9.13894200    1.99271900   -2.32765000
 H                0    2.06687000    7.45224900    3.26996200
 H                0    0.95935100    7.00905000    1.95847300
 H                0   -2.20175000    6.77905900   -1.43707300
 H                0    4.40688700   -2.53777900    1.07215300
 H                0    4.20702700   -3.92159400    2.12798500
 H                0    2.20016000    2.77576700    0.59902500
 H                0   -1.15519000    1.05052400    1.59572300
 H                0    0.95764800   -0.00970900    4.77851500
 H                0    2.27584100    2.53484900   -1.46417000
 O                0   -0.39509600   -2.56334500   -1.06910000
 H                0   -1.28391100   -2.61196900   -0.66938000
 H                0   -0.35836200   -1.63155600   -1.40549500
 O                0    1.80129100   -4.47674800    1.97525800
 H                0    1.85758500   -5.39318400    1.67647500
 O                0    1.84790300   -1.36823500    0.83544400
 H                0    2.56419400   -1.12716600    0.23473300
 O                0    0.28769000   -5.12575900   -0.41175100
 H                0    0.01396000   -4.79672300   -1.28011600
 H                0    1.11651500   -4.41362900    2.72169100
 H                0    1.25123400   -0.56164300    0.85167200
 H                0    1.18781300   -5.53565600   -0.55624900
 H                0    2.33311400    0.23208800   -1.96495000
 H                0   -3.87105800    4.53739900    0.88553500
 Mg               0    0.95634300   -3.22465000    0.45018900
 C                0   -5.64978800   -1.68734500    0.27787300
 C                0   -6.99199300   -1.73537900    0.52187200
 H                0   -4.89834800   -1.79879500    1.04881800
 H                0   -7.37477000   -1.89233800    1.52224000
 N                0   -5.18001900   -1.50871200   -0.97584000
 N                0   -7.40827200   -1.44391000   -1.84986200
 C                0   -7.84722100   -1.59399400   -0.61410700
 C                0   -6.05981300   -1.41716400   -2.10189100
 N                0   -9.21084800   -1.65479800   -0.44545100
 H                0   -9.58703000   -1.41103000    0.45772400
 H                0   -9.74417000   -1.34836300   -1.24676100
 O                0   -5.56242100   -1.30839400   -3.21697100

